147
Lattice="32.83723338177104 0.0 0.0 0.0 32.83723338177104 0.0 0.0 0.0 32.83723338177104" Properties=species:S:1:pos:R:3:type:I:1 timestep=400000 pbc="F F F"
Cu      16.39819193      16.34611208      16.31701829        1
Cu      18.52972242      16.40758338      15.18318146        1
Cu      18.51222018      16.52231667      17.59018350        1
Cu      14.44417952      16.35701404      15.13520626        1
Cu      14.39075334      16.29541139      17.66590616        1
Cu      15.17526769      18.42415072      16.30628052        1
Cu      17.60469756      18.41948783      16.55301949        1
Cu      15.20623320      14.38740395      16.33888789        1
Cu      17.63211665      14.32711479      16.55715698        1
Cu      16.46169914      15.24593341      18.54085425        1
Cu      16.33862519      17.56782135      18.48755942        1
Cu      16.41894506      15.21867851      14.40431512        1
Cu      16.44258787      17.62571339      14.33850931        1
Cu      20.64539253      16.44271922      14.07531888        1
Cu      20.71983454      16.60700390      16.47092640        1
Cu      20.38079011      16.60178278      19.01788074        1
Cu      12.51486071      16.37914634      13.69897135        1
Cu      12.39323160      16.44682387      16.35435423        1
Cu      12.31675368      16.36318744      18.92928588        1
Cu      13.89244833      20.39960584      16.33511161        1
Cu      16.30907168      20.49509652      16.53926069        1
Cu      18.85047652      20.63623095      16.58772844        1
Cu      13.82559172      12.36154367      16.35980521        1
Cu      16.45230769      12.16117087      16.47480120        1
Cu      18.99450063      12.26132443      16.48110595        1
Cu      16.53328431      13.84017145      20.44577499        1
Cu      16.28293324      16.39753519      20.62641261        1
Cu      16.27130886      18.83320414      20.50087587        1
Cu      16.61898949      13.93080222      12.26680825        1
Cu      16.40246077      16.48373292      12.28319403        1
Cu      16.43831903      18.97332061      12.25114489        1
Cu      18.57651548      15.13454952      19.88711514        1
Cu      18.37302315      17.67913957      19.73097410        1
Cu      18.52640586      15.23421052      13.16024370        1
Cu      18.48572053      17.75006799      13.10711305        1
Cu      14.42982965      14.97085591      19.79274093        1
Cu      14.27848284      17.75614288      19.76860557        1
Cu      14.55044081      14.93700072      13.11712841        1
Cu      14.35995202      17.81600516      12.99004832        1
Cu      19.73146666      18.47271699      15.31571253        1
Cu      19.76834287      18.60744816      17.77912894        1
Cu      13.19071665      18.42559556      15.09507916        1
Cu      13.15160750      18.37896669      17.60781710        1
Cu      19.82121081      14.36428653      15.33469245        1
Cu      19.64300315      14.46450577      17.74051236        1
Cu      13.10589808      14.31089319      14.98060857        1
Cu      13.08301052      14.26564348      17.75899972        1
Cu      15.04211270      19.57437333      18.41794448        1
Cu      17.65392057      19.77451627      18.57040776        1
Cu      15.18331281      13.09699919      18.35591495        1
Cu      17.68032171      12.97005044      18.45334302        1
Cu      15.18442927      19.83812199      14.21793098        1
Cu      17.70557354      19.74335373      14.36146253        1
Cu      15.39550701      12.93734456      14.50187454        1
Cu      17.90683294      13.15009699      14.36931063        1
Cu      22.60186774      16.57305020      12.75421131        1
Cu      22.70481246      16.49076009      15.30425234        1
Cu      22.77987838      16.46376789      17.82405028        1
Cu      22.42037635      16.45253755      20.30260466        1
Cu      10.48588090      16.48172985      12.59235658        1
Cu      10.29352039      16.23285646      15.03541391        1
Cu      10.15002168      16.18034973      17.50917405        1
Cu      10.19225036      16.27426421      19.96622004        1
Cu      12.51413829      22.38954219      16.35471543        1
Cu      15.08526083      22.59943778      16.30302963        1
Cu      17.58351755      22.63519753      16.48964363        1
Cu      20.16107618      22.54207113      16.52024793        1
Cu      12.65284277      10.28948141      16.20386118        1
Cu      15.22173237      10.17566755      16.36430391        1
Cu      17.74267962      10.23178639      16.32851132        1
Cu      20.35695028      10.46585019      16.40535045        1
Cu      16.10377330      12.57728429      22.54325328        1
Cu      16.10531665      15.01452943      22.55599412        1
Cu      16.26621909      17.61520548      22.74142598        1
Cu      16.35806483      20.13979765      22.48716728        1
Cu      16.56300201      12.60361975      10.34891680        1
Cu      16.54001594      15.17733643      10.08907577        1
Cu      16.38259425      17.71542471      10.13767488        1
Cu      16.24254345      20.12469252      10.10864676        1
Cu      20.47132236      15.31597523      21.17827516        1
Cu      18.45560879      13.82007506      21.88178005        1
Cu      20.45089760      17.81144078      21.02449839        1
Cu      18.43150626      16.50786829      21.96403732        1
Cu      18.31674013      18.90912382      21.76399289        1
Cu      20.64135355      15.23286419      12.00358499        1
Cu      18.69111743      13.96695601      11.04637964        1
Cu      20.60329520      17.77929313      12.02634119        1
Cu      18.58282023      16.59918864      11.05701890        1
Cu      18.53057619      19.01827478      11.05609946        1
Cu      12.18721080      15.16232982      21.00262880        1
Cu      14.19458371      13.87642376      21.79732268        1
Cu      12.21315221      17.70406303      20.95984188        1
Cu      14.24915919      16.47398027      22.11390645        1
Cu      14.14703540      19.22984508      21.74708171        1
Cu      12.39333011      15.08394734      11.65206240        1
Cu      14.48627686      13.78759904      11.03728372        1
Cu      12.34502654      17.69470442      11.69415974        1
Cu      14.41071838      16.35126753      10.76082705        1
Cu      14.26042236      19.00353087      10.97357949        1
Cu      21.03963636      20.57058932      15.30573001        1
Cu      21.77381122      18.48200992      14.07538455        1
Cu      21.12090851      20.65228835      17.81873065        1
Cu      21.93842427      18.67289276      16.65451938        1
Cu      21.71972830      18.77064921      19.09921856        1
Cu      11.73468088      20.45808896      15.07944864        1
Cu      10.73508266      18.49823152      13.99079584        1
Cu      11.77727078      20.26165663      17.57186033        1
Cu      10.91489935      18.35197448      16.29025595        1
Cu      10.85093242      18.51376353      18.87408649        1
Cu      21.16221775      12.48264739      15.24048243        1
Cu      21.91484714      14.42927142      14.12109398        1
Cu      20.97520971      12.50011679      17.72232053        1
Cu      21.97753342      14.34225275      16.52973789        1
Cu      21.64614006      14.42776091      19.01906288        1
Cu      11.93879713      12.18547042      14.88459250        1
Cu      11.14528538      14.37883343      13.68261841        1
Cu      11.95758002      12.19952476      17.61435171        1
Cu      11.07593315      14.20184074      16.24119712        1
Cu      11.02047106      14.23927519      18.78004066        1
Cu      15.07038556      21.01914592      20.45395146        1
Cu      13.78063755      21.72626291      18.34238601        1
Cu      17.54795482      20.93672447      20.56477713        1
Cu      16.21230035      21.87337371      18.41590857        1
Cu      18.94616422      21.84716960      18.63696883        1
Cu      15.07770827      11.82100997      20.39871924        1
Cu      13.92226453      10.94918142      18.35023411        1
Cu      17.68528013      11.75618927      20.50810006        1
Cu      16.26825500      10.69127779      18.65946233        1
Cu      18.98277773      11.01114528      18.41968486        1
Cu      15.19654621      21.01356360      12.21154319        1
Cu      13.71726169      21.88723103      14.29903895        1
Cu      17.54007389      21.13604648      12.27436081        1
Cu      16.34397766      22.04895440      14.36615826        1
Cu      18.84364638      21.83344364      14.46036828        1
Cu      15.25736077      11.98059892      12.36223325        1
Cu      14.05893310      11.03416418      14.26662860        1
Cu      17.86900445      11.82429369      12.25873029        1
Cu      16.51791648      10.93486439      14.25165482        1
Cu      19.06999343      11.01584101      14.29917030        1
Cu      19.77753729      12.83003248      19.89194221        1
Cu      19.74561950      19.97836981      19.97101427        1
Cu      20.11723847      13.18497013      13.11171027        1
Cu      19.75924695      19.88878984      13.18533134        1
Cu      12.97996729      12.94956001      19.75327058        1
Cu      12.89074852      19.74026703      19.63485951        1
Cu      13.15498974      12.96049481      13.01989736        1
Cu      12.98755269      19.85759447      13.03053663        1
