1688
Properties=species:S:1:pos:R:3:id:I:1
Cu 0.0 0.0 0.0 1
Cu 0.0 0.0 3.68000007 2
Cu 0.0 0.0 7.36000013 3
Cu 0.0 0.0 11.04 4
Cu 0.0 0.0 14.7200003 5
Cu 0.0 0.0 18.3999996 6
Cu 0.0 0.0 22.0799999 7
Cu 0.0 0.0 25.7600002 8
Cu 0.0 3.68000007 0.0 9
Cu 0.0 3.68000007 3.68000007 10
Cu 0.0 3.68000007 7.36000013 11
Cu 0.0 3.68000007 11.04 12
Cu 0.0 3.68000007 14.7200003 13
Cu 0.0 3.68000007 18.3999996 14
Cu 0.0 3.68000007 22.0799999 15
Cu 0.0 3.68000007 25.7600002 16
Cu 0.0 7.36000013 0.0 17
Cu 0.0 7.36000013 3.68000007 18
Cu 0.0 7.36000013 7.36000013 19
Cu 0.0 7.36000013 11.04 20
Cu 0.0 7.36000013 14.7200003 21
Cu 0.0 7.36000013 18.3999996 22
Cu 0.0 7.36000013 22.0799999 23
Cu 0.0 7.36000013 25.7600002 24
Cu 0.0 11.04 0.0 25
Cu 0.0 11.04 3.68000007 26
Cu 0.0 11.04 7.36000013 27
Cu 0.0 11.04 11.04 28
Cu 0.0 11.04 14.7200003 29
Cu 0.0 11.04 18.3999996 30
Cu 0.0 11.04 22.0799999 31
Cu 0.0 11.04 25.7600002 32
Cu 0.0 14.7200003 0.0 33
Cu 0.0 14.7200003 3.68000007 34
Cu 0.0 14.7200003 7.36000013 35
Cu 0.0 14.7200003 11.04 36
Cu 0.0 14.7200003 14.7200003 37
Cu 0.0 14.7200003 18.3999996 38
Cu 0.0 14.7200003 22.0799999 39
Cu 0.0 14.7200003 25.7600002 40
Cu 0.0 18.3999996 0.0 41
Cu 0.0 18.3999996 3.68000007 42
Cu 0.0 18.3999996 7.36000013 43
Cu 0.0 18.3999996 11.04 44
Cu 0.0 18.3999996 14.7200003 45
Cu 0.0 18.3999996 18.3999996 46
Cu 0.0 18.3999996 22.0799999 47
Cu 0.0 18.3999996 25.7600002 48
Cu 0.0 22.0799999 0.0 49
Cu 0.0 22.0799999 3.68000007 50
Cu 0.0 22.0799999 7.36000013 51
Cu 0.0 22.0799999 11.04 52
Cu 0.0 22.0799999 14.7200003 53
Cu 0.0 22.0799999 18.3999996 54
Cu 0.0 22.0799999 22.0799999 55
Cu 0.0 22.0799999 25.7600002 56
Cu 0.0 25.7600002 0.0 57
Cu 0.0 25.7600002 3.68000007 58
Cu 0.0 25.7600002 7.36000013 59
Cu 0.0 25.7600002 11.04 60
Cu 0.0 25.7600002 14.7200003 61
Cu 0.0 25.7600002 18.3999996 62
Cu 0.0 25.7600002 22.0799999 63
Cu 0.0 25.7600002 25.7600002 64
Cu 3.68000007 0.0 0.0 65
Cu 3.68000007 0.0 3.68000007 66
Cu 3.68000007 0.0 7.36000013 67
Cu 3.68000007 0.0 11.04 68
Cu 3.68000007 0.0 14.7200003 69
Cu 3.68000007 0.0 18.3999996 70
Cu 3.68000007 0.0 22.0799999 71
Cu 3.68000007 0.0 25.7600002 72
Cu 3.68000007 3.68000007 0.0 73
Cu 3.68000007 3.68000007 3.68000007 74
Cu 3.68000007 3.68000007 7.36000013 75
Cu 3.68000007 3.68000007 11.04 76
Cu 3.68000007 3.68000007 14.7200003 77
Cu 3.68000007 3.68000007 18.3999996 78
Cu 3.68000007 3.68000007 22.0799999 79
Cu 3.68000007 3.68000007 25.7600002 80
Cu 3.68000007 7.36000013 0.0 81
Cu 3.68000007 7.36000013 3.68000007 82
Cu 3.68000007 7.36000013 7.36000013 83
Cu 3.68000007 7.36000013 11.04 84
Cu 3.68000007 7.36000013 14.7200003 85
Cu 3.68000007 7.36000013 18.3999996 86
Cu 3.68000007 7.36000013 22.0799999 87
Cu 3.68000007 7.36000013 25.7600002 88
Cu 3.68000007 11.04 0.0 89
Cu 3.68000007 11.04 3.68000007 90
Cu 3.68000007 11.04 7.36000013 91
Cu 3.68000007 11.04 11.04 92
Cu 3.68000007 11.04 14.7200003 93
Cu 3.68000007 11.04 18.3999996 94
Cu 3.68000007 11.04 22.0799999 95
Cu 3.68000007 11.04 25.7600002 96
Cu 3.68000007 14.7200003 0.0 97
Cu 3.68000007 14.7200003 3.68000007 98
Cu 3.68000007 14.7200003 7.36000013 99
Cu 3.68000007 14.7200003 11.04 100
Cu 3.68000007 14.7200003 14.7200003 101
Cu 3.68000007 14.7200003 18.3999996 102
Cu 3.68000007 14.7200003 22.0799999 103
Cu 3.68000007 14.7200003 25.7600002 104
Cu 3.68000007 18.3999996 0.0 105
Cu 3.68000007 18.3999996 3.68000007 106
Cu 3.68000007 18.3999996 7.36000013 107
Cu 3.68000007 18.3999996 11.04 108
Cu 3.68000007 18.3999996 14.7200003 109
Cu 3.68000007 18.3999996 18.3999996 110
Cu 3.68000007 18.3999996 22.0799999 111
Cu 3.68000007 18.3999996 25.7600002 112
Cu 3.68000007 22.0799999 0.0 113
Cu 3.68000007 22.0799999 3.68000007 114
Cu 3.68000007 22.0799999 7.36000013 115
Cu 3.68000007 22.0799999 11.04 116
Cu 3.68000007 22.0799999 14.7200003 117
Cu 3.68000007 22.0799999 18.3999996 118
Cu 3.68000007 22.0799999 22.0799999 119
Cu 3.68000007 22.0799999 25.7600002 120
Cu 3.68000007 25.7600002 0.0 121
Cu 3.68000007 25.7600002 3.68000007 122
Cu 3.68000007 25.7600002 7.36000013 123
Cu 3.68000007 25.7600002 11.04 124
Cu 3.68000007 25.7600002 14.7200003 125
Cu 3.68000007 25.7600002 18.3999996 126
Cu 3.68000007 25.7600002 22.0799999 127
Cu 3.68000007 25.7600002 25.7600002 128
Cu 7.36000013 0.0 0.0 129
Cu 7.36000013 0.0 3.68000007 130
Cu 7.36000013 0.0 7.36000013 131
Cu 7.36000013 0.0 11.04 132
Cu 7.36000013 0.0 14.7200003 133
Cu 7.36000013 0.0 18.3999996 134
Cu 7.36000013 0.0 22.0799999 135
Cu 7.36000013 0.0 25.7600002 136
Cu 7.36000013 3.68000007 0.0 137
Cu 7.36000013 3.68000007 3.68000007 138
Cu 7.36000013 3.68000007 7.36000013 139
Cu 7.36000013 3.68000007 11.04 140
Cu 7.36000013 3.68000007 14.7200003 141
Cu 7.36000013 3.68000007 18.3999996 142
Cu 7.36000013 3.68000007 22.0799999 143
Cu 7.36000013 3.68000007 25.7600002 144
Cu 7.36000013 7.36000013 0.0 145
Cu 7.36000013 7.36000013 3.68000007 146
Cu 7.36000013 7.36000013 7.36000013 147
Cu 7.36000013 7.36000013 11.04 148
Cu 7.36000013 7.36000013 14.7200003 149
Cu 7.36000013 7.36000013 18.3999996 150
Cu 7.36000013 7.36000013 22.0799999 151
Cu 7.36000013 7.36000013 25.7600002 152
Cu 7.36000013 11.04 0.0 153
Cu 7.36000013 11.04 3.68000007 154
Cu 7.36000013 11.04 7.36000013 155
Cu 7.36000013 11.04 11.04 156
Cu 7.36000013 11.04 14.7200003 157
Cu 7.36000013 11.04 18.3999996 158
Cu 7.36000013 11.04 22.0799999 159
Cu 7.36000013 11.04 25.7600002 160
Cu 7.36000013 14.7200003 0.0 161
Cu 7.36000013 14.7200003 3.68000007 162
Cu 7.36000013 14.7200003 7.36000013 163
Cu 7.36000013 14.7200003 11.04 164
Cu 7.36000013 14.7200003 14.7200003 165
Cu 7.36000013 14.7200003 18.3999996 166
Cu 7.36000013 14.7200003 22.0799999 167
Cu 7.36000013 14.7200003 25.7600002 168
Cu 7.36000013 18.3999996 0.0 169
Cu 7.36000013 18.3999996 3.68000007 170
Cu 7.36000013 18.3999996 7.36000013 171
Cu 7.36000013 18.3999996 11.04 172
Cu 7.36000013 18.3999996 14.7200003 173
Cu 7.36000013 18.3999996 18.3999996 174
Cu 7.36000013 18.3999996 22.0799999 175
Cu 7.36000013 18.3999996 25.7600002 176
Cu 7.36000013 22.0799999 0.0 177
Cu 7.36000013 22.0799999 3.68000007 178
Cu 7.36000013 22.0799999 7.36000013 179
Cu 7.36000013 22.0799999 11.04 180
Cu 7.36000013 22.0799999 14.7200003 181
Cu 7.36000013 22.0799999 18.3999996 182
Cu 7.36000013 22.0799999 22.0799999 183
Cu 7.36000013 22.0799999 25.7600002 184
Cu 7.36000013 25.7600002 0.0 185
Cu 7.36000013 25.7600002 3.68000007 186
Cu 7.36000013 25.7600002 7.36000013 187
Cu 7.36000013 25.7600002 11.04 188
Cu 7.36000013 25.7600002 14.7200003 189
Cu 7.36000013 25.7600002 18.3999996 190
Cu 7.36000013 25.7600002 22.0799999 191
Cu 7.36000013 25.7600002 25.7600002 192
Cu 11.04 0.0 0.0 193
Cu 11.04 0.0 3.68000007 194
Cu 11.04 0.0 7.36000013 195
Cu 11.04 0.0 11.04 196
Cu 11.04 0.0 14.7200003 197
Cu 11.04 0.0 18.3999996 198
Cu 11.04 0.0 22.0799999 199
Cu 11.04 0.0 25.7600002 200
Cu 11.04 3.68000007 0.0 201
Cu 11.04 3.68000007 3.68000007 202
Cu 11.04 3.68000007 7.36000013 203
Cu 11.04 3.68000007 11.04 204
Cu 11.04 3.68000007 14.7200003 205
Cu 11.04 3.68000007 18.3999996 206
Cu 11.04 3.68000007 22.0799999 207
Cu 11.04 3.68000007 25.7600002 208
Cu 11.04 7.36000013 0.0 209
Cu 11.04 7.36000013 3.68000007 210
Cu 11.04 7.36000013 7.36000013 211
Cu 11.04 7.36000013 11.04 212
Cu 11.04 7.36000013 14.7200003 213
Cu 11.04 7.36000013 18.3999996 214
Cu 11.04 7.36000013 22.0799999 215
Cu 11.04 7.36000013 25.7600002 216
Cu 11.04 11.04 0.0 217
Cu 11.04 11.04 3.68000007 218
Cu 11.04 11.04 7.36000013 219
Cu 11.04 11.04 11.04 220
Cu 11.04 11.04 14.7200003 221
Cu 11.04 11.04 18.3999996 222
Cu 11.04 11.04 22.0799999 223
Cu 11.04 11.04 25.7600002 224
Cu 11.04 14.7200003 0.0 225
Cu 11.04 14.7200003 3.68000007 226
Cu 11.04 14.7200003 7.36000013 227
Cu 11.04 14.7200003 11.04 228
Cu 11.04 14.7200003 14.7200003 229
Cu 11.04 14.7200003 18.3999996 230
Cu 11.04 14.7200003 22.0799999 231
Cu 11.04 14.7200003 25.7600002 232
Cu 11.04 18.3999996 0.0 233
Cu 11.04 18.3999996 3.68000007 234
Cu 11.04 18.3999996 7.36000013 235
Cu 11.04 18.3999996 11.04 236
Cu 11.04 18.3999996 14.7200003 237
Cu 11.04 18.3999996 18.3999996 238
Cu 11.04 18.3999996 22.0799999 239
Cu 11.04 18.3999996 25.7600002 240
Cu 11.04 22.0799999 0.0 241
Cu 11.04 22.0799999 3.68000007 242
Cu 11.04 22.0799999 7.36000013 243
Cu 11.04 22.0799999 11.04 244
Cu 11.04 22.0799999 14.7200003 245
Cu 11.04 22.0799999 18.3999996 246
Cu 11.04 22.0799999 22.0799999 247
Cu 11.04 22.0799999 25.7600002 248
Cu 11.04 25.7600002 0.0 249
Cu 11.04 25.7600002 3.68000007 250
Cu 11.04 25.7600002 7.36000013 251
Cu 11.04 25.7600002 11.04 252
Cu 11.04 25.7600002 14.7200003 253
Cu 11.04 25.7600002 18.3999996 254
Cu 11.04 25.7600002 22.0799999 255
Cu 11.04 25.7600002 25.7600002 256
Cu 14.7200003 0.0 0.0 257
Cu 14.7200003 0.0 3.68000007 258
Cu 14.7200003 0.0 7.36000013 259
Cu 14.7200003 0.0 11.04 260
Cu 14.7200003 0.0 14.7200003 261
Cu 14.7200003 0.0 18.3999996 262
Cu 14.7200003 0.0 22.0799999 263
Cu 14.7200003 0.0 25.7600002 264
Cu 14.7200003 3.68000007 0.0 265
Cu 14.7200003 3.68000007 3.68000007 266
Cu 14.7200003 3.68000007 7.36000013 267
Cu 14.7200003 3.68000007 11.04 268
Cu 14.7200003 3.68000007 14.7200003 269
Cu 14.7200003 3.68000007 18.3999996 270
Cu 14.7200003 3.68000007 22.0799999 271
Cu 14.7200003 3.68000007 25.7600002 272
Cu 14.7200003 7.36000013 0.0 273
Cu 14.7200003 7.36000013 3.68000007 274
Cu 14.7200003 7.36000013 7.36000013 275
Cu 14.7200003 7.36000013 11.04 276
Cu 14.7200003 7.36000013 14.7200003 277
Cu 14.7200003 7.36000013 18.3999996 278
Cu 14.7200003 7.36000013 22.0799999 279
Cu 14.7200003 7.36000013 25.7600002 280
Cu 14.7200003 11.04 0.0 281
Cu 14.7200003 11.04 3.68000007 282
Cu 14.7200003 11.04 7.36000013 283
Cu 14.7200003 11.04 11.04 284
Cu 14.7200003 11.04 14.7200003 285
Cu 14.7200003 11.04 18.3999996 286
Cu 14.7200003 11.04 22.0799999 287
Cu 14.7200003 11.04 25.7600002 288
Cu 14.7200003 14.7200003 0.0 289
Cu 14.7200003 14.7200003 3.68000007 290
Cu 14.7200003 14.7200003 7.36000013 291
Cu 14.7200003 14.7200003 11.04 292
Cu 14.7200003 14.7200003 14.7200003 293
Cu 14.7200003 14.7200003 18.3999996 294
Cu 14.7200003 14.7200003 22.0799999 295
Cu 14.7200003 14.7200003 25.7600002 296
Cu 14.7200003 18.3999996 0.0 297
Cu 14.7200003 18.3999996 3.68000007 298
Cu 14.7200003 18.3999996 7.36000013 299
Cu 14.7200003 18.3999996 11.04 300
Cu 14.7200003 18.3999996 14.7200003 301
Cu 14.7200003 18.3999996 18.3999996 302
Cu 14.7200003 18.3999996 22.0799999 303
Cu 14.7200003 18.3999996 25.7600002 304
Cu 14.7200003 22.0799999 0.0 305
Cu 14.7200003 22.0799999 3.68000007 306
Cu 14.7200003 22.0799999 7.36000013 307
Cu 14.7200003 22.0799999 11.04 308
Cu 14.7200003 22.0799999 14.7200003 309
Cu 14.7200003 22.0799999 18.3999996 310
Cu 14.7200003 22.0799999 22.0799999 311
Cu 14.7200003 22.0799999 25.7600002 312
Cu 14.7200003 25.7600002 0.0 313
Cu 14.7200003 25.7600002 3.68000007 314
Cu 14.7200003 25.7600002 7.36000013 315
Cu 14.7200003 25.7600002 11.04 316
Cu 14.7200003 25.7600002 14.7200003 317
Cu 14.7200003 25.7600002 18.3999996 318
Cu 14.7200003 25.7600002 22.0799999 319
Cu 14.7200003 25.7600002 25.7600002 320
Cu 18.3999996 0.0 0.0 321
Cu 18.3999996 0.0 3.68000007 322
Cu 18.3999996 0.0 7.36000013 323
Cu 18.3999996 0.0 11.04 324
Cu 18.3999996 0.0 14.7200003 325
Cu 18.3999996 0.0 18.3999996 326
Cu 18.3999996 0.0 22.0799999 327
Cu 18.3999996 0.0 25.7600002 328
Cu 18.3999996 3.68000007 0.0 329
Cu 18.3999996 3.68000007 3.68000007 330
Cu 18.3999996 3.68000007 7.36000013 331
Cu 18.3999996 3.68000007 11.04 332
Cu 18.3999996 3.68000007 14.7200003 333
Cu 18.3999996 3.68000007 18.3999996 334
Cu 18.3999996 3.68000007 22.0799999 335
Cu 18.3999996 3.68000007 25.7600002 336
Cu 18.3999996 7.36000013 0.0 337
Cu 18.3999996 7.36000013 3.68000007 338
Cu 18.3999996 7.36000013 7.36000013 339
Cu 18.3999996 7.36000013 11.04 340
Cu 18.3999996 7.36000013 14.7200003 341
Cu 18.3999996 7.36000013 18.3999996 342
Cu 18.3999996 7.36000013 22.0799999 343
Cu 18.3999996 7.36000013 25.7600002 344
Cu 18.3999996 11.04 0.0 345
Cu 18.3999996 11.04 3.68000007 346
Cu 18.3999996 11.04 7.36000013 347
Cu 18.3999996 11.04 11.04 348
Cu 18.3999996 11.04 14.7200003 349
Cu 18.3999996 11.04 18.3999996 350
Cu 18.3999996 11.04 22.0799999 351
Cu 18.3999996 11.04 25.7600002 352
Cu 18.3999996 14.7200003 0.0 353
Cu 18.3999996 14.7200003 3.68000007 354
Cu 18.3999996 14.7200003 7.36000013 355
Cu 18.3999996 14.7200003 11.04 356
Cu 18.3999996 14.7200003 14.7200003 357
Cu 18.3999996 14.7200003 18.3999996 358
Cu 18.3999996 14.7200003 22.0799999 359
Cu 18.3999996 14.7200003 25.7600002 360
Cu 18.3999996 18.3999996 0.0 361
Cu 18.3999996 18.3999996 3.68000007 362
Cu 18.3999996 18.3999996 7.36000013 363
Cu 18.3999996 18.3999996 11.04 364
Cu 18.3999996 18.3999996 14.7200003 365
Cu 18.3999996 18.3999996 18.3999996 366
Cu 18.3999996 18.3999996 22.0799999 367
Cu 18.3999996 18.3999996 25.7600002 368
Cu 18.3999996 22.0799999 0.0 369
Cu 18.3999996 22.0799999 3.68000007 370
Cu 18.3999996 22.0799999 7.36000013 371
Cu 18.3999996 22.0799999 11.04 372
Cu 18.3999996 22.0799999 14.7200003 373
Cu 18.3999996 22.0799999 18.3999996 374
Cu 18.3999996 22.0799999 22.0799999 375
Cu 18.3999996 22.0799999 25.7600002 376
Cu 18.3999996 25.7600002 0.0 377
Cu 18.3999996 25.7600002 3.68000007 378
Cu 18.3999996 25.7600002 7.36000013 379
Cu 18.3999996 25.7600002 11.04 380
Cu 18.3999996 25.7600002 14.7200003 381
Cu 18.3999996 25.7600002 18.3999996 382
Cu 18.3999996 25.7600002 22.0799999 383
Cu 18.3999996 25.7600002 25.7600002 384
Cu 22.0799999 0.0 0.0 385
Cu 22.0799999 0.0 3.68000007 386
Cu 22.0799999 0.0 7.36000013 387
Cu 22.0799999 0.0 11.04 388
Cu 22.0799999 0.0 14.7200003 389
Cu 22.0799999 0.0 18.3999996 390
Cu 22.0799999 0.0 22.0799999 391
Cu 22.0799999 0.0 25.7600002 392
Cu 22.0799999 3.68000007 0.0 393
Cu 22.0799999 3.68000007 3.68000007 394
Cu 22.0799999 3.68000007 7.36000013 395
Cu 22.0799999 3.68000007 11.04 396
Cu 22.0799999 3.68000007 14.7200003 397
Cu 22.0799999 3.68000007 18.3999996 398
Cu 22.0799999 3.68000007 22.0799999 399
Cu 22.0799999 3.68000007 25.7600002 400
Cu 22.0799999 7.36000013 0.0 401
Cu 22.0799999 7.36000013 3.68000007 402
Cu 22.0799999 7.36000013 7.36000013 403
Cu 22.0799999 7.36000013 11.04 404
Cu 22.0799999 7.36000013 14.7200003 405
Cu 22.0799999 7.36000013 18.3999996 406
Cu 22.0799999 7.36000013 22.0799999 407
Cu 22.0799999 7.36000013 25.7600002 408
Cu 22.0799999 11.04 0.0 409
Cu 22.0799999 11.04 3.68000007 410
Cu 22.0799999 11.04 7.36000013 411
Cu 22.0799999 11.04 11.04 412
Cu 22.0799999 11.04 14.7200003 413
Cu 22.0799999 11.04 18.3999996 414
Cu 22.0799999 11.04 22.0799999 415
Cu 22.0799999 11.04 25.7600002 416
Cu 22.0799999 14.7200003 0.0 417
Cu 22.0799999 14.7200003 3.68000007 418
Cu 22.0799999 14.7200003 7.36000013 419
Cu 22.0799999 14.7200003 11.04 420
Cu 22.0799999 14.7200003 14.7200003 421
Cu 22.0799999 14.7200003 18.3999996 422
Cu 22.0799999 14.7200003 22.0799999 423
Cu 22.0799999 14.7200003 25.7600002 424
Cu 22.0799999 18.3999996 0.0 425
Cu 22.0799999 18.3999996 3.68000007 426
Cu 22.0799999 18.3999996 7.36000013 427
Cu 22.0799999 18.3999996 11.04 428
Cu 22.0799999 18.3999996 14.7200003 429
Cu 22.0799999 18.3999996 18.3999996 430
Cu 22.0799999 18.3999996 22.0799999 431
Cu 22.0799999 18.3999996 25.7600002 432
Cu 22.0799999 22.0799999 0.0 433
Cu 22.0799999 22.0799999 3.68000007 434
Cu 22.0799999 22.0799999 7.36000013 435
Cu 22.0799999 22.0799999 11.04 436
Cu 22.0799999 22.0799999 14.7200003 437
Cu 22.0799999 22.0799999 18.3999996 438
Cu 22.0799999 22.0799999 22.0799999 439
Cu 22.0799999 22.0799999 25.7600002 440
Cu 22.0799999 25.7600002 0.0 441
Cu 22.0799999 25.7600002 3.68000007 442
Cu 22.0799999 25.7600002 7.36000013 443
Cu 22.0799999 25.7600002 11.04 444
Cu 22.0799999 25.7600002 14.7200003 445
Cu 22.0799999 25.7600002 18.3999996 446
Cu 22.0799999 25.7600002 22.0799999 447
Cu 22.0799999 25.7600002 25.7600002 448
Cu 25.7600002 0.0 0.0 449
Cu 25.7600002 0.0 3.68000007 450
Cu 25.7600002 0.0 7.36000013 451
Cu 25.7600002 0.0 11.04 452
Cu 25.7600002 0.0 14.7200003 453
Cu 25.7600002 0.0 18.3999996 454
Cu 25.7600002 0.0 22.0799999 455
Cu 25.7600002 0.0 25.7600002 456
Cu 25.7600002 3.68000007 0.0 457
Cu 25.7600002 3.68000007 3.68000007 458
Cu 25.7600002 3.68000007 7.36000013 459
Cu 25.7600002 3.68000007 11.04 460
Cu 25.7600002 3.68000007 14.7200003 461
Cu 25.7600002 3.68000007 18.3999996 462
Cu 25.7600002 3.68000007 22.0799999 463
Cu 25.7600002 3.68000007 25.7600002 464
Cu 25.7600002 7.36000013 0.0 465
Cu 25.7600002 7.36000013 3.68000007 466
Cu 25.7600002 7.36000013 7.36000013 467
Cu 25.7600002 7.36000013 11.04 468
Cu 25.7600002 7.36000013 14.7200003 469
Cu 25.7600002 7.36000013 18.3999996 470
Cu 25.7600002 7.36000013 22.0799999 471
Cu 25.7600002 7.36000013 25.7600002 472
Cu 25.7600002 11.04 0.0 473
Cu 25.7600002 11.04 3.68000007 474
Cu 25.7600002 11.04 7.36000013 475
Cu 25.7600002 11.04 11.04 476
Cu 25.7600002 11.04 14.7200003 477
Cu 25.7600002 11.04 18.3999996 478
Cu 25.7600002 11.04 22.0799999 479
Cu 25.7600002 11.04 25.7600002 480
Cu 25.7600002 14.7200003 0.0 481
Cu 25.7600002 14.7200003 3.68000007 482
Cu 25.7600002 14.7200003 7.36000013 483
Cu 25.7600002 14.7200003 11.04 484
Cu 25.7600002 14.7200003 14.7200003 485
Cu 25.7600002 14.7200003 18.3999996 486
Cu 25.7600002 14.7200003 22.0799999 487
Cu 25.7600002 14.7200003 25.7600002 488
Cu 25.7600002 18.3999996 0.0 489
Cu 25.7600002 18.3999996 3.68000007 490
Cu 25.7600002 18.3999996 7.36000013 491
Cu 25.7600002 18.3999996 11.04 492
Cu 25.7600002 18.3999996 14.7200003 493
Cu 25.7600002 18.3999996 18.3999996 494
Cu 25.7600002 18.3999996 22.0799999 495
Cu 25.7600002 18.3999996 25.7600002 496
Cu 25.7600002 22.0799999 0.0 497
Cu 25.7600002 22.0799999 3.68000007 498
Cu 25.7600002 22.0799999 7.36000013 499
Cu 25.7600002 22.0799999 11.04 500
Cu 25.7600002 22.0799999 14.7200003 501
Cu 25.7600002 22.0799999 18.3999996 502
Cu 25.7600002 22.0799999 22.0799999 503
Cu 25.7600002 22.0799999 25.7600002 504
Cu 25.7600002 25.7600002 0.0 505
Cu 25.7600002 25.7600002 3.68000007 506
Cu 25.7600002 25.7600002 7.36000013 507
Cu 25.7600002 25.7600002 11.04 508
Cu 25.7600002 25.7600002 14.7200003 509
Cu 25.7600002 25.7600002 18.3999996 510
Cu 25.7600002 25.7600002 22.0799999 511
Cu 25.7600002 25.7600002 25.7600002 512
Cu 1.84000003 1.84000003 0.0 513
Cu 1.84000003 1.84000003 3.68000007 514
Cu 1.84000003 1.84000003 7.36000013 515
Cu 1.84000003 1.84000003 11.04 516
Cu 1.84000003 1.84000003 14.7200003 517
Cu 1.84000003 1.84000003 18.3999996 518
Cu 1.84000003 1.84000003 22.0799999 519
Cu 1.84000003 1.84000003 25.7600002 520
Cu 1.84000003 5.51999998 0.0 521
Cu 1.84000003 5.51999998 3.68000007 522
Cu 1.84000003 5.51999998 7.36000013 523
Cu 1.84000003 5.51999998 11.04 524
Cu 1.84000003 5.51999998 14.7200003 525
Cu 1.84000003 5.51999998 18.3999996 526
Cu 1.84000003 5.51999998 22.0799999 527
Cu 1.84000003 5.51999998 25.7600002 528
Cu 1.84000003 9.19999981 0.0 529
Cu 1.84000003 9.19999981 3.68000007 530
Cu 1.84000003 9.19999981 7.36000013 531
Cu 1.84000003 9.19999981 11.04 532
Cu 1.84000003 9.19999981 14.7200003 533
Cu 1.84000003 9.19999981 18.3999996 534
Cu 1.84000003 9.19999981 22.0799999 535
Cu 1.84000003 9.19999981 25.7600002 536
Cu 1.84000003 12.8800001 0.0 537
Cu 1.84000003 12.8800001 3.68000007 538
Cu 1.84000003 12.8800001 7.36000013 539
Cu 1.84000003 12.8800001 11.04 540
Cu 1.84000003 12.8800001 14.7200003 541
Cu 1.84000003 12.8800001 18.3999996 542
Cu 1.84000003 12.8800001 22.0799999 543
Cu 1.84000003 12.8800001 25.7600002 544
Cu 1.84000003 16.5599995 0.0 545
Cu 1.84000003 16.5599995 3.68000007 546
Cu 1.84000003 16.5599995 7.36000013 547
Cu 1.84000003 16.5599995 11.04 548
Cu 1.84000003 16.5599995 14.7200003 549
Cu 1.84000003 16.5599995 18.3999996 550
Cu 1.84000003 16.5599995 22.0799999 551
Cu 1.84000003 16.5599995 25.7600002 552
Cu 1.84000003 20.2399998 0.0 553
Cu 1.84000003 20.2399998 3.68000007 554
Cu 1.84000003 20.2399998 7.36000013 555
Cu 1.84000003 20.2399998 11.04 556
Cu 1.84000003 20.2399998 14.7200003 557
Cu 1.84000003 20.2399998 18.3999996 558
Cu 1.84000003 20.2399998 22.0799999 559
Cu 1.84000003 20.2399998 25.7600002 560
Cu 1.84000003 23.9200001 0.0 561
Cu 1.84000003 23.9200001 3.68000007 562
Cu 1.84000003 23.9200001 7.36000013 563
Cu 1.84000003 23.9200001 11.04 564
Cu 1.84000003 23.9200001 14.7200003 565
Cu 1.84000003 23.9200001 18.3999996 566
Cu 1.84000003 23.9200001 22.0799999 567
Cu 1.84000003 23.9200001 25.7600002 568
Cu 5.51999998 1.84000003 0.0 569
Cu 5.51999998 1.84000003 3.68000007 570
Cu 5.51999998 1.84000003 7.36000013 571
Cu 5.51999998 1.84000003 11.04 572
Cu 5.51999998 1.84000003 14.7200003 573
Cu 5.51999998 1.84000003 18.3999996 574
Cu 5.51999998 1.84000003 22.0799999 575
Cu 5.51999998 1.84000003 25.7600002 576
Cu 5.51999998 5.51999998 0.0 577
Cu 5.51999998 5.51999998 3.68000007 578
Cu 5.51999998 5.51999998 7.36000013 579
Cu 5.51999998 5.51999998 11.04 580
Cu 5.51999998 5.51999998 14.7200003 581
Cu 5.51999998 5.51999998 18.3999996 582
Cu 5.51999998 5.51999998 22.0799999 583
Cu 5.51999998 5.51999998 25.7600002 584
Cu 5.51999998 9.19999981 0.0 585
Cu 5.51999998 9.19999981 3.68000007 586
Cu 5.51999998 9.19999981 7.36000013 587
Cu 5.51999998 9.19999981 11.04 588
Cu 5.51999998 9.19999981 14.7200003 589
Cu 5.51999998 9.19999981 18.3999996 590
Cu 5.51999998 9.19999981 22.0799999 591
Cu 5.51999998 9.19999981 25.7600002 592
Cu 5.51999998 12.8800001 0.0 593
Cu 5.51999998 12.8800001 3.68000007 594
Cu 5.51999998 12.8800001 7.36000013 595
Cu 5.51999998 12.8800001 11.04 596
Cu 5.51999998 12.8800001 14.7200003 597
Cu 5.51999998 12.8800001 18.3999996 598
Cu 5.51999998 12.8800001 22.0799999 599
Cu 5.51999998 12.8800001 25.7600002 600
Cu 5.51999998 16.5599995 0.0 601
Cu 5.51999998 16.5599995 3.68000007 602
Cu 5.51999998 16.5599995 7.36000013 603
Cu 5.51999998 16.5599995 11.04 604
Cu 5.51999998 16.5599995 14.7200003 605
Cu 5.51999998 16.5599995 18.3999996 606
Cu 5.51999998 16.5599995 22.0799999 607
Cu 5.51999998 16.5599995 25.7600002 608
Cu 5.51999998 20.2399998 0.0 609
Cu 5.51999998 20.2399998 3.68000007 610
Cu 5.51999998 20.2399998 7.36000013 611
Cu 5.51999998 20.2399998 11.04 612
Cu 5.51999998 20.2399998 14.7200003 613
Cu 5.51999998 20.2399998 18.3999996 614
Cu 5.51999998 20.2399998 22.0799999 615
Cu 5.51999998 20.2399998 25.7600002 616
Cu 5.51999998 23.9200001 0.0 617
Cu 5.51999998 23.9200001 3.68000007 618
Cu 5.51999998 23.9200001 7.36000013 619
Cu 5.51999998 23.9200001 11.04 620
Cu 5.51999998 23.9200001 14.7200003 621
Cu 5.51999998 23.9200001 18.3999996 622
Cu 5.51999998 23.9200001 22.0799999 623
Cu 5.51999998 23.9200001 25.7600002 624
Cu 9.19999981 1.84000003 0.0 625
Cu 9.19999981 1.84000003 3.68000007 626
Cu 9.19999981 1.84000003 7.36000013 627
Cu 9.19999981 1.84000003 11.04 628
Cu 9.19999981 1.84000003 14.7200003 629
Cu 9.19999981 1.84000003 18.3999996 630
Cu 9.19999981 1.84000003 22.0799999 631
Cu 9.19999981 1.84000003 25.7600002 632
Cu 9.19999981 5.51999998 0.0 633
Cu 9.19999981 5.51999998 3.68000007 634
Cu 9.19999981 5.51999998 7.36000013 635
Cu 9.19999981 5.51999998 11.04 636
Cu 9.19999981 5.51999998 14.7200003 637
Cu 9.19999981 5.51999998 18.3999996 638
Cu 9.19999981 5.51999998 22.0799999 639
Cu 9.19999981 5.51999998 25.7600002 640
Cu 9.19999981 9.19999981 0.0 641
Cu 9.19999981 9.19999981 3.68000007 642
Cu 9.19999981 9.19999981 7.36000013 643
Cu 9.19999981 9.19999981 11.04 644
Cu 9.19999981 9.19999981 14.7200003 645
Cu 9.19999981 9.19999981 18.3999996 646
Cu 9.19999981 9.19999981 22.0799999 647
Cu 9.19999981 9.19999981 25.7600002 648
Cu 9.19999981 12.8800001 0.0 649
Cu 9.19999981 12.8800001 3.68000007 650
Cu 9.19999981 12.8800001 7.36000013 651
Cu 9.19999981 12.8800001 11.04 652
Cu 9.19999981 12.8800001 14.7200003 653
Cu 9.19999981 12.8800001 18.3999996 654
Cu 9.19999981 12.8800001 22.0799999 655
Cu 9.19999981 12.8800001 25.7600002 656
Cu 9.19999981 16.5599995 0.0 657
Cu 9.19999981 16.5599995 3.68000007 658
Cu 9.19999981 16.5599995 7.36000013 659
Cu 9.19999981 16.5599995 11.04 660
Cu 9.19999981 16.5599995 14.7200003 661
Cu 9.19999981 16.5599995 18.3999996 662
Cu 9.19999981 16.5599995 22.0799999 663
Cu 9.19999981 16.5599995 25.7600002 664
Cu 9.19999981 20.2399998 0.0 665
Cu 9.19999981 20.2399998 3.68000007 666
Cu 9.19999981 20.2399998 7.36000013 667
Cu 9.19999981 20.2399998 11.04 668
Cu 9.19999981 20.2399998 14.7200003 669
Cu 9.19999981 20.2399998 18.3999996 670
Cu 9.19999981 20.2399998 22.0799999 671
Cu 9.19999981 20.2399998 25.7600002 672
Cu 9.19999981 23.9200001 0.0 673
Cu 9.19999981 23.9200001 3.68000007 674
Cu 9.19999981 23.9200001 7.36000013 675
Cu 9.19999981 23.9200001 11.04 676
Cu 9.19999981 23.9200001 14.7200003 677
Cu 9.19999981 23.9200001 18.3999996 678
Cu 9.19999981 23.9200001 22.0799999 679
Cu 9.19999981 23.9200001 25.7600002 680
Cu 12.8800001 1.84000003 0.0 681
Cu 12.8800001 1.84000003 3.68000007 682
Cu 12.8800001 1.84000003 7.36000013 683
Cu 12.8800001 1.84000003 11.04 684
Cu 12.8800001 1.84000003 14.7200003 685
Cu 12.8800001 1.84000003 18.3999996 686
Cu 12.8800001 1.84000003 22.0799999 687
Cu 12.8800001 1.84000003 25.7600002 688
Cu 12.8800001 5.51999998 0.0 689
Cu 12.8800001 5.51999998 3.68000007 690
Cu 12.8800001 5.51999998 7.36000013 691
Cu 12.8800001 5.51999998 11.04 692
Cu 12.8800001 5.51999998 14.7200003 693
Cu 12.8800001 5.51999998 18.3999996 694
Cu 12.8800001 5.51999998 22.0799999 695
Cu 12.8800001 5.51999998 25.7600002 696
Cu 12.8800001 9.19999981 0.0 697
Cu 12.8800001 9.19999981 3.68000007 698
Cu 12.8800001 9.19999981 7.36000013 699
Cu 12.8800001 9.19999981 11.04 700
Cu 12.8800001 9.19999981 14.7200003 701
Cu 12.8800001 9.19999981 18.3999996 702
Cu 12.8800001 9.19999981 22.0799999 703
Cu 12.8800001 9.19999981 25.7600002 704
Cu 12.8800001 12.8800001 0.0 705
Cu 12.8800001 12.8800001 3.68000007 706
Cu 12.8800001 12.8800001 7.36000013 707
Cu 12.8800001 12.8800001 11.04 708
Cu 12.8800001 12.8800001 14.7200003 709
Cu 12.8800001 12.8800001 18.3999996 710
Cu 12.8800001 12.8800001 22.0799999 711
Cu 12.8800001 12.8800001 25.7600002 712
Cu 12.8800001 16.5599995 0.0 713
Cu 12.8800001 16.5599995 3.68000007 714
Cu 12.8800001 16.5599995 7.36000013 715
Cu 12.8800001 16.5599995 11.04 716
Cu 12.8800001 16.5599995 14.7200003 717
Cu 12.8800001 16.5599995 18.3999996 718
Cu 12.8800001 16.5599995 22.0799999 719
Cu 12.8800001 16.5599995 25.7600002 720
Cu 12.8800001 20.2399998 0.0 721
Cu 12.8800001 20.2399998 3.68000007 722
Cu 12.8800001 20.2399998 7.36000013 723
Cu 12.8800001 20.2399998 11.04 724
Cu 12.8800001 20.2399998 14.7200003 725
Cu 12.8800001 20.2399998 18.3999996 726
Cu 12.8800001 20.2399998 22.0799999 727
Cu 12.8800001 20.2399998 25.7600002 728
Cu 12.8800001 23.9200001 0.0 729
Cu 12.8800001 23.9200001 3.68000007 730
Cu 12.8800001 23.9200001 7.36000013 731
Cu 12.8800001 23.9200001 11.04 732
Cu 12.8800001 23.9200001 14.7200003 733
Cu 12.8800001 23.9200001 18.3999996 734
Cu 12.8800001 23.9200001 22.0799999 735
Cu 12.8800001 23.9200001 25.7600002 736
Cu 16.5599995 1.84000003 0.0 737
Cu 16.5599995 1.84000003 3.68000007 738
Cu 16.5599995 1.84000003 7.36000013 739
Cu 16.5599995 1.84000003 11.04 740
Cu 16.5599995 1.84000003 14.7200003 741
Cu 16.5599995 1.84000003 18.3999996 742
Cu 16.5599995 1.84000003 22.0799999 743
Cu 16.5599995 1.84000003 25.7600002 744
Cu 16.5599995 5.51999998 0.0 745
Cu 16.5599995 5.51999998 3.68000007 746
Cu 16.5599995 5.51999998 7.36000013 747
Cu 16.5599995 5.51999998 11.04 748
Cu 16.5599995 5.51999998 14.7200003 749
Cu 16.5599995 5.51999998 18.3999996 750
Cu 16.5599995 5.51999998 22.0799999 751
Cu 16.5599995 5.51999998 25.7600002 752
Cu 16.5599995 9.19999981 0.0 753
Cu 16.5599995 9.19999981 3.68000007 754
Cu 16.5599995 9.19999981 7.36000013 755
Cu 16.5599995 9.19999981 11.04 756
Cu 16.5599995 9.19999981 14.7200003 757
Cu 16.5599995 9.19999981 18.3999996 758
Cu 16.5599995 9.19999981 22.0799999 759
Cu 16.5599995 9.19999981 25.7600002 760
Cu 16.5599995 12.8800001 0.0 761
Cu 16.5599995 12.8800001 3.68000007 762
Cu 16.5599995 12.8800001 7.36000013 763
Cu 16.5599995 12.8800001 11.04 764
Cu 16.5599995 12.8800001 14.7200003 765
Cu 16.5599995 12.8800001 18.3999996 766
Cu 16.5599995 12.8800001 22.0799999 767
Cu 16.5599995 12.8800001 25.7600002 768
Cu 16.5599995 16.5599995 0.0 769
Cu 16.5599995 16.5599995 3.68000007 770
Cu 16.5599995 16.5599995 7.36000013 771
Cu 16.5599995 16.5599995 11.04 772
Cu 16.5599995 16.5599995 14.7200003 773
Cu 16.5599995 16.5599995 18.3999996 774
Cu 16.5599995 16.5599995 22.0799999 775
Cu 16.5599995 16.5599995 25.7600002 776
Cu 16.5599995 20.2399998 0.0 777
Cu 16.5599995 20.2399998 3.68000007 778
Cu 16.5599995 20.2399998 7.36000013 779
Cu 16.5599995 20.2399998 11.04 780
Cu 16.5599995 20.2399998 14.7200003 781
Cu 16.5599995 20.2399998 18.3999996 782
Cu 16.5599995 20.2399998 22.0799999 783
Cu 16.5599995 20.2399998 25.7600002 784
Cu 16.5599995 23.9200001 0.0 785
Cu 16.5599995 23.9200001 3.68000007 786
Cu 16.5599995 23.9200001 7.36000013 787
Cu 16.5599995 23.9200001 11.04 788
Cu 16.5599995 23.9200001 14.7200003 789
Cu 16.5599995 23.9200001 18.3999996 790
Cu 16.5599995 23.9200001 22.0799999 791
Cu 16.5599995 23.9200001 25.7600002 792
Cu 20.2399998 1.84000003 0.0 793
Cu 20.2399998 1.84000003 3.68000007 794
Cu 20.2399998 1.84000003 7.36000013 795
Cu 20.2399998 1.84000003 11.04 796
Cu 20.2399998 1.84000003 14.7200003 797
Cu 20.2399998 1.84000003 18.3999996 798
Cu 20.2399998 1.84000003 22.0799999 799
Cu 20.2399998 1.84000003 25.7600002 800
Cu 20.2399998 5.51999998 0.0 801
Cu 20.2399998 5.51999998 3.68000007 802
Cu 20.2399998 5.51999998 7.36000013 803
Cu 20.2399998 5.51999998 11.04 804
Cu 20.2399998 5.51999998 14.7200003 805
Cu 20.2399998 5.51999998 18.3999996 806
Cu 20.2399998 5.51999998 22.0799999 807
Cu 20.2399998 5.51999998 25.7600002 808
Cu 20.2399998 9.19999981 0.0 809
Cu 20.2399998 9.19999981 3.68000007 810
Cu 20.2399998 9.19999981 7.36000013 811
Cu 20.2399998 9.19999981 11.04 812
Cu 20.2399998 9.19999981 14.7200003 813
Cu 20.2399998 9.19999981 18.3999996 814
Cu 20.2399998 9.19999981 22.0799999 815
Cu 20.2399998 9.19999981 25.7600002 816
Cu 20.2399998 12.8800001 0.0 817
Cu 20.2399998 12.8800001 3.68000007 818
Cu 20.2399998 12.8800001 7.36000013 819
Cu 20.2399998 12.8800001 11.04 820
Cu 20.2399998 12.8800001 14.7200003 821
Cu 20.2399998 12.8800001 18.3999996 822
Cu 20.2399998 12.8800001 22.0799999 823
Cu 20.2399998 12.8800001 25.7600002 824
Cu 20.2399998 16.5599995 0.0 825
Cu 20.2399998 16.5599995 3.68000007 826
Cu 20.2399998 16.5599995 7.36000013 827
Cu 20.2399998 16.5599995 11.04 828
Cu 20.2399998 16.5599995 14.7200003 829
Cu 20.2399998 16.5599995 18.3999996 830
Cu 20.2399998 16.5599995 22.0799999 831
Cu 20.2399998 16.5599995 25.7600002 832
Cu 20.2399998 20.2399998 0.0 833
Cu 20.2399998 20.2399998 3.68000007 834
Cu 20.2399998 20.2399998 7.36000013 835
Cu 20.2399998 20.2399998 11.04 836
Cu 20.2399998 20.2399998 14.7200003 837
Cu 20.2399998 20.2399998 18.3999996 838
Cu 20.2399998 20.2399998 22.0799999 839
Cu 20.2399998 20.2399998 25.7600002 840
Cu 20.2399998 23.9200001 0.0 841
Cu 20.2399998 23.9200001 3.68000007 842
Cu 20.2399998 23.9200001 7.36000013 843
Cu 20.2399998 23.9200001 11.04 844
Cu 20.2399998 23.9200001 14.7200003 845
Cu 20.2399998 23.9200001 18.3999996 846
Cu 20.2399998 23.9200001 22.0799999 847
Cu 20.2399998 23.9200001 25.7600002 848
Cu 23.9200001 1.84000003 0.0 849
Cu 23.9200001 1.84000003 3.68000007 850
Cu 23.9200001 1.84000003 7.36000013 851
Cu 23.9200001 1.84000003 11.04 852
Cu 23.9200001 1.84000003 14.7200003 853
Cu 23.9200001 1.84000003 18.3999996 854
Cu 23.9200001 1.84000003 22.0799999 855
Cu 23.9200001 1.84000003 25.7600002 856
Cu 23.9200001 5.51999998 0.0 857
Cu 23.9200001 5.51999998 3.68000007 858
Cu 23.9200001 5.51999998 7.36000013 859
Cu 23.9200001 5.51999998 11.04 860
Cu 23.9200001 5.51999998 14.7200003 861
Cu 23.9200001 5.51999998 18.3999996 862
Cu 23.9200001 5.51999998 22.0799999 863
Cu 23.9200001 5.51999998 25.7600002 864
Cu 23.9200001 9.19999981 0.0 865
Cu 23.9200001 9.19999981 3.68000007 866
Cu 23.9200001 9.19999981 7.36000013 867
Cu 23.9200001 9.19999981 11.04 868
Cu 23.9200001 9.19999981 14.7200003 869
Cu 23.9200001 9.19999981 18.3999996 870
Cu 23.9200001 9.19999981 22.0799999 871
Cu 23.9200001 9.19999981 25.7600002 872
Cu 23.9200001 12.8800001 0.0 873
Cu 23.9200001 12.8800001 3.68000007 874
Cu 23.9200001 12.8800001 7.36000013 875
Cu 23.9200001 12.8800001 11.04 876
Cu 23.9200001 12.8800001 14.7200003 877
Cu 23.9200001 12.8800001 18.3999996 878
Cu 23.9200001 12.8800001 22.0799999 879
Cu 23.9200001 12.8800001 25.7600002 880
Cu 23.9200001 16.5599995 0.0 881
Cu 23.9200001 16.5599995 3.68000007 882
Cu 23.9200001 16.5599995 7.36000013 883
Cu 23.9200001 16.5599995 11.04 884
Cu 23.9200001 16.5599995 14.7200003 885
Cu 23.9200001 16.5599995 18.3999996 886
Cu 23.9200001 16.5599995 22.0799999 887
Cu 23.9200001 16.5599995 25.7600002 888
Cu 23.9200001 20.2399998 0.0 889
Cu 23.9200001 20.2399998 3.68000007 890
Cu 23.9200001 20.2399998 7.36000013 891
Cu 23.9200001 20.2399998 11.04 892
Cu 23.9200001 20.2399998 14.7200003 893
Cu 23.9200001 20.2399998 18.3999996 894
Cu 23.9200001 20.2399998 22.0799999 895
Cu 23.9200001 20.2399998 25.7600002 896
Cu 23.9200001 23.9200001 0.0 897
Cu 23.9200001 23.9200001 3.68000007 898
Cu 23.9200001 23.9200001 7.36000013 899
Cu 23.9200001 23.9200001 11.04 900
Cu 23.9200001 23.9200001 14.7200003 901
Cu 23.9200001 23.9200001 18.3999996 902
Cu 23.9200001 23.9200001 22.0799999 903
Cu 23.9200001 23.9200001 25.7600002 904
Cu 0.0 1.84000003 1.84000003 905
Cu 0.0 1.84000003 5.51999998 906
Cu 0.0 1.84000003 9.19999981 907
Cu 0.0 1.84000003 12.8800001 908
Cu 0.0 1.84000003 16.5599995 909
Cu 0.0 1.84000003 20.2399998 910
Cu 0.0 1.84000003 23.9200001 911
Cu 0.0 5.51999998 1.84000003 912
Cu 0.0 5.51999998 5.51999998 913
Cu 0.0 5.51999998 9.19999981 914
Cu 0.0 5.51999998 12.8800001 915
Cu 0.0 5.51999998 16.5599995 916
Cu 0.0 5.51999998 20.2399998 917
Cu 0.0 5.51999998 23.9200001 918
Cu 0.0 9.19999981 1.84000003 919
Cu 0.0 9.19999981 5.51999998 920
Cu 0.0 9.19999981 9.19999981 921
Cu 0.0 9.19999981 12.8800001 922
Cu 0.0 9.19999981 16.5599995 923
Cu 0.0 9.19999981 20.2399998 924
Cu 0.0 9.19999981 23.9200001 925
Cu 0.0 12.8800001 1.84000003 926
Cu 0.0 12.8800001 5.51999998 927
Cu 0.0 12.8800001 9.19999981 928
Cu 0.0 12.8800001 12.8800001 929
Cu 0.0 12.8800001 16.5599995 930
Cu 0.0 12.8800001 20.2399998 931
Cu 0.0 12.8800001 23.9200001 932
Cu 0.0 16.5599995 1.84000003 933
Cu 0.0 16.5599995 5.51999998 934
Cu 0.0 16.5599995 9.19999981 935
Cu 0.0 16.5599995 12.8800001 936
Cu 0.0 16.5599995 16.5599995 937
Cu 0.0 16.5599995 20.2399998 938
Cu 0.0 16.5599995 23.9200001 939
Cu 0.0 20.2399998 1.84000003 940
Cu 0.0 20.2399998 5.51999998 941
Cu 0.0 20.2399998 9.19999981 942
Cu 0.0 20.2399998 12.8800001 943
Cu 0.0 20.2399998 16.5599995 944
Cu 0.0 20.2399998 20.2399998 945
Cu 0.0 20.2399998 23.9200001 946
Cu 0.0 23.9200001 1.84000003 947
Cu 0.0 23.9200001 5.51999998 948
Cu 0.0 23.9200001 9.19999981 949
Cu 0.0 23.9200001 12.8800001 950
Cu 0.0 23.9200001 16.5599995 951
Cu 0.0 23.9200001 20.2399998 952
Cu 0.0 23.9200001 23.9200001 953
Cu 3.68000007 1.84000003 1.84000003 954
Cu 3.68000007 1.84000003 5.51999998 955
Cu 3.68000007 1.84000003 9.19999981 956
Cu 3.68000007 1.84000003 12.8800001 957
Cu 3.68000007 1.84000003 16.5599995 958
Cu 3.68000007 1.84000003 20.2399998 959
Cu 3.68000007 1.84000003 23.9200001 960
Cu 3.68000007 5.51999998 1.84000003 961
Cu 3.68000007 5.51999998 5.51999998 962
Cu 3.68000007 5.51999998 9.19999981 963
Cu 3.68000007 5.51999998 12.8800001 964
Cu 3.68000007 5.51999998 16.5599995 965
Cu 3.68000007 5.51999998 20.2399998 966
Cu 3.68000007 5.51999998 23.9200001 967
Cu 3.68000007 9.19999981 1.84000003 968
Cu 3.68000007 9.19999981 5.51999998 969
Cu 3.68000007 9.19999981 9.19999981 970
Cu 3.68000007 9.19999981 12.8800001 971
Cu 3.68000007 9.19999981 16.5599995 972
Cu 3.68000007 9.19999981 20.2399998 973
Cu 3.68000007 9.19999981 23.9200001 974
Cu 3.68000007 12.8800001 1.84000003 975
Cu 3.68000007 12.8800001 5.51999998 976
Cu 3.68000007 12.8800001 9.19999981 977
Cu 3.68000007 12.8800001 12.8800001 978
Cu 3.68000007 12.8800001 16.5599995 979
Cu 3.68000007 12.8800001 20.2399998 980
Cu 3.68000007 12.8800001 23.9200001 981
Cu 3.68000007 16.5599995 1.84000003 982
Cu 3.68000007 16.5599995 5.51999998 983
Cu 3.68000007 16.5599995 9.19999981 984
Cu 3.68000007 16.5599995 12.8800001 985
Cu 3.68000007 16.5599995 16.5599995 986
Cu 3.68000007 16.5599995 20.2399998 987
Cu 3.68000007 16.5599995 23.9200001 988
Cu 3.68000007 20.2399998 1.84000003 989
Cu 3.68000007 20.2399998 5.51999998 990
Cu 3.68000007 20.2399998 9.19999981 991
Cu 3.68000007 20.2399998 12.8800001 992
Cu 3.68000007 20.2399998 16.5599995 993
Cu 3.68000007 20.2399998 20.2399998 994
Cu 3.68000007 20.2399998 23.9200001 995
Cu 3.68000007 23.9200001 1.84000003 996
Cu 3.68000007 23.9200001 5.51999998 997
Cu 3.68000007 23.9200001 9.19999981 998
Cu 3.68000007 23.9200001 12.8800001 999
Cu 3.68000007 23.9200001 16.5599995 1000
Cu 3.68000007 23.9200001 20.2399998 1001
Cu 3.68000007 23.9200001 23.9200001 1002
Cu 7.36000013 1.84000003 1.84000003 1003
Cu 7.36000013 1.84000003 5.51999998 1004
Cu 7.36000013 1.84000003 9.19999981 1005
Cu 7.36000013 1.84000003 12.8800001 1006
Cu 7.36000013 1.84000003 16.5599995 1007
Cu 7.36000013 1.84000003 20.2399998 1008
Cu 7.36000013 1.84000003 23.9200001 1009
Cu 7.36000013 5.51999998 1.84000003 1010
Cu 7.36000013 5.51999998 5.51999998 1011
Cu 7.36000013 5.51999998 9.19999981 1012
Cu 7.36000013 5.51999998 12.8800001 1013
Cu 7.36000013 5.51999998 16.5599995 1014
Cu 7.36000013 5.51999998 20.2399998 1015
Cu 7.36000013 5.51999998 23.9200001 1016
Cu 7.36000013 9.19999981 1.84000003 1017
Cu 7.36000013 9.19999981 5.51999998 1018
Cu 7.36000013 9.19999981 9.19999981 1019
Cu 7.36000013 9.19999981 12.8800001 1020
Cu 7.36000013 9.19999981 16.5599995 1021
Cu 7.36000013 9.19999981 20.2399998 1022
Cu 7.36000013 9.19999981 23.9200001 1023
Cu 7.36000013 12.8800001 1.84000003 1024
Cu 7.36000013 12.8800001 5.51999998 1025
Cu 7.36000013 12.8800001 9.19999981 1026
Cu 7.36000013 12.8800001 12.8800001 1027
Cu 7.36000013 12.8800001 16.5599995 1028
Cu 7.36000013 12.8800001 20.2399998 1029
Cu 7.36000013 12.8800001 23.9200001 1030
Cu 7.36000013 16.5599995 1.84000003 1031
Cu 7.36000013 16.5599995 5.51999998 1032
Cu 7.36000013 16.5599995 9.19999981 1033
Cu 7.36000013 16.5599995 12.8800001 1034
Cu 7.36000013 16.5599995 16.5599995 1035
Cu 7.36000013 16.5599995 20.2399998 1036
Cu 7.36000013 16.5599995 23.9200001 1037
Cu 7.36000013 20.2399998 1.84000003 1038
Cu 7.36000013 20.2399998 5.51999998 1039
Cu 7.36000013 20.2399998 9.19999981 1040
Cu 7.36000013 20.2399998 12.8800001 1041
Cu 7.36000013 20.2399998 16.5599995 1042
Cu 7.36000013 20.2399998 20.2399998 1043
Cu 7.36000013 20.2399998 23.9200001 1044
Cu 7.36000013 23.9200001 1.84000003 1045
Cu 7.36000013 23.9200001 5.51999998 1046
Cu 7.36000013 23.9200001 9.19999981 1047
Cu 7.36000013 23.9200001 12.8800001 1048
Cu 7.36000013 23.9200001 16.5599995 1049
Cu 7.36000013 23.9200001 20.2399998 1050
Cu 7.36000013 23.9200001 23.9200001 1051
Cu 11.04 1.84000003 1.84000003 1052
Cu 11.04 1.84000003 5.51999998 1053
Cu 11.04 1.84000003 9.19999981 1054
Cu 11.04 1.84000003 12.8800001 1055
Cu 11.04 1.84000003 16.5599995 1056
Cu 11.04 1.84000003 20.2399998 1057
Cu 11.04 1.84000003 23.9200001 1058
Cu 11.04 5.51999998 1.84000003 1059
Cu 11.04 5.51999998 5.51999998 1060
Cu 11.04 5.51999998 9.19999981 1061
Cu 11.04 5.51999998 12.8800001 1062
Cu 11.04 5.51999998 16.5599995 1063
Cu 11.04 5.51999998 20.2399998 1064
Cu 11.04 5.51999998 23.9200001 1065
Cu 11.04 9.19999981 1.84000003 1066
Cu 11.04 9.19999981 5.51999998 1067
Cu 11.04 9.19999981 9.19999981 1068
Cu 11.04 9.19999981 12.8800001 1069
Cu 11.04 9.19999981 16.5599995 1070
Cu 11.04 9.19999981 20.2399998 1071
Cu 11.04 9.19999981 23.9200001 1072
Cu 11.04 12.8800001 1.84000003 1073
Cu 11.04 12.8800001 5.51999998 1074
Cu 11.04 12.8800001 9.19999981 1075
Cu 11.04 12.8800001 12.8800001 1076
Cu 11.04 12.8800001 16.5599995 1077
Cu 11.04 12.8800001 20.2399998 1078
Cu 11.04 12.8800001 23.9200001 1079
Cu 11.04 16.5599995 1.84000003 1080
Cu 11.04 16.5599995 5.51999998 1081
Cu 11.04 16.5599995 9.19999981 1082
Cu 11.04 16.5599995 12.8800001 1083
Cu 11.04 16.5599995 16.5599995 1084
Cu 11.04 16.5599995 20.2399998 1085
Cu 11.04 16.5599995 23.9200001 1086
Cu 11.04 20.2399998 1.84000003 1087
Cu 11.04 20.2399998 5.51999998 1088
Cu 11.04 20.2399998 9.19999981 1089
Cu 11.04 20.2399998 12.8800001 1090
Cu 11.04 20.2399998 16.5599995 1091
Cu 11.04 20.2399998 20.2399998 1092
Cu 11.04 20.2399998 23.9200001 1093
Cu 11.04 23.9200001 1.84000003 1094
Cu 11.04 23.9200001 5.51999998 1095
Cu 11.04 23.9200001 9.19999981 1096
Cu 11.04 23.9200001 12.8800001 1097
Cu 11.04 23.9200001 16.5599995 1098
Cu 11.04 23.9200001 20.2399998 1099
Cu 11.04 23.9200001 23.9200001 1100
Cu 14.7200003 1.84000003 1.84000003 1101
Cu 14.7200003 1.84000003 5.51999998 1102
Cu 14.7200003 1.84000003 9.19999981 1103
Cu 14.7200003 1.84000003 12.8800001 1104
Cu 14.7200003 1.84000003 16.5599995 1105
Cu 14.7200003 1.84000003 20.2399998 1106
Cu 14.7200003 1.84000003 23.9200001 1107
Cu 14.7200003 5.51999998 1.84000003 1108
Cu 14.7200003 5.51999998 5.51999998 1109
Cu 14.7200003 5.51999998 9.19999981 1110
Cu 14.7200003 5.51999998 12.8800001 1111
Cu 14.7200003 5.51999998 16.5599995 1112
Cu 14.7200003 5.51999998 20.2399998 1113
Cu 14.7200003 5.51999998 23.9200001 1114
Cu 14.7200003 9.19999981 1.84000003 1115
Cu 14.7200003 9.19999981 5.51999998 1116
Cu 14.7200003 9.19999981 9.19999981 1117
Cu 14.7200003 9.19999981 12.8800001 1118
Cu 14.7200003 9.19999981 16.5599995 1119
Cu 14.7200003 9.19999981 20.2399998 1120
Cu 14.7200003 9.19999981 23.9200001 1121
Cu 14.7200003 12.8800001 1.84000003 1122
Cu 14.7200003 12.8800001 5.51999998 1123
Cu 14.7200003 12.8800001 9.19999981 1124
Cu 14.7200003 12.8800001 12.8800001 1125
Cu 14.7200003 12.8800001 16.5599995 1126
Cu 14.7200003 12.8800001 20.2399998 1127
Cu 14.7200003 12.8800001 23.9200001 1128
Cu 14.7200003 16.5599995 1.84000003 1129
Cu 14.7200003 16.5599995 5.51999998 1130
Cu 14.7200003 16.5599995 9.19999981 1131
Cu 14.7200003 16.5599995 12.8800001 1132
Cu 14.7200003 16.5599995 16.5599995 1133
Cu 14.7200003 16.5599995 20.2399998 1134
Cu 14.7200003 16.5599995 23.9200001 1135
Cu 14.7200003 20.2399998 1.84000003 1136
Cu 14.7200003 20.2399998 5.51999998 1137
Cu 14.7200003 20.2399998 9.19999981 1138
Cu 14.7200003 20.2399998 12.8800001 1139
Cu 14.7200003 20.2399998 16.5599995 1140
Cu 14.7200003 20.2399998 20.2399998 1141
Cu 14.7200003 20.2399998 23.9200001 1142
Cu 14.7200003 23.9200001 1.84000003 1143
Cu 14.7200003 23.9200001 5.51999998 1144
Cu 14.7200003 23.9200001 9.19999981 1145
Cu 14.7200003 23.9200001 12.8800001 1146
Cu 14.7200003 23.9200001 16.5599995 1147
Cu 14.7200003 23.9200001 20.2399998 1148
Cu 14.7200003 23.9200001 23.9200001 1149
Cu 18.3999996 1.84000003 1.84000003 1150
Cu 18.3999996 1.84000003 5.51999998 1151
Cu 18.3999996 1.84000003 9.19999981 1152
Cu 18.3999996 1.84000003 12.8800001 1153
Cu 18.3999996 1.84000003 16.5599995 1154
Cu 18.3999996 1.84000003 20.2399998 1155
Cu 18.3999996 1.84000003 23.9200001 1156
Cu 18.3999996 5.51999998 1.84000003 1157
Cu 18.3999996 5.51999998 5.51999998 1158
Cu 18.3999996 5.51999998 9.19999981 1159
Cu 18.3999996 5.51999998 12.8800001 1160
Cu 18.3999996 5.51999998 16.5599995 1161
Cu 18.3999996 5.51999998 20.2399998 1162
Cu 18.3999996 5.51999998 23.9200001 1163
Cu 18.3999996 9.19999981 1.84000003 1164
Cu 18.3999996 9.19999981 5.51999998 1165
Cu 18.3999996 9.19999981 9.19999981 1166
Cu 18.3999996 9.19999981 12.8800001 1167
Cu 18.3999996 9.19999981 16.5599995 1168
Cu 18.3999996 9.19999981 20.2399998 1169
Cu 18.3999996 9.19999981 23.9200001 1170
Cu 18.3999996 12.8800001 1.84000003 1171
Cu 18.3999996 12.8800001 5.51999998 1172
Cu 18.3999996 12.8800001 9.19999981 1173
Cu 18.3999996 12.8800001 12.8800001 1174
Cu 18.3999996 12.8800001 16.5599995 1175
Cu 18.3999996 12.8800001 20.2399998 1176
Cu 18.3999996 12.8800001 23.9200001 1177
Cu 18.3999996 16.5599995 1.84000003 1178
Cu 18.3999996 16.5599995 5.51999998 1179
Cu 18.3999996 16.5599995 9.19999981 1180
Cu 18.3999996 16.5599995 12.8800001 1181
Cu 18.3999996 16.5599995 16.5599995 1182
Cu 18.3999996 16.5599995 20.2399998 1183
Cu 18.3999996 16.5599995 23.9200001 1184
Cu 18.3999996 20.2399998 1.84000003 1185
Cu 18.3999996 20.2399998 5.51999998 1186
Cu 18.3999996 20.2399998 9.19999981 1187
Cu 18.3999996 20.2399998 12.8800001 1188
Cu 18.3999996 20.2399998 16.5599995 1189
Cu 18.3999996 20.2399998 20.2399998 1190
Cu 18.3999996 20.2399998 23.9200001 1191
Cu 18.3999996 23.9200001 1.84000003 1192
Cu 18.3999996 23.9200001 5.51999998 1193
Cu 18.3999996 23.9200001 9.19999981 1194
Cu 18.3999996 23.9200001 12.8800001 1195
Cu 18.3999996 23.9200001 16.5599995 1196
Cu 18.3999996 23.9200001 20.2399998 1197
Cu 18.3999996 23.9200001 23.9200001 1198
Cu 22.0799999 1.84000003 1.84000003 1199
Cu 22.0799999 1.84000003 5.51999998 1200
Cu 22.0799999 1.84000003 9.19999981 1201
Cu 22.0799999 1.84000003 12.8800001 1202
Cu 22.0799999 1.84000003 16.5599995 1203
Cu 22.0799999 1.84000003 20.2399998 1204
Cu 22.0799999 1.84000003 23.9200001 1205
Cu 22.0799999 5.51999998 1.84000003 1206
Cu 22.0799999 5.51999998 5.51999998 1207
Cu 22.0799999 5.51999998 9.19999981 1208
Cu 22.0799999 5.51999998 12.8800001 1209
Cu 22.0799999 5.51999998 16.5599995 1210
Cu 22.0799999 5.51999998 20.2399998 1211
Cu 22.0799999 5.51999998 23.9200001 1212
Cu 22.0799999 9.19999981 1.84000003 1213
Cu 22.0799999 9.19999981 5.51999998 1214
Cu 22.0799999 9.19999981 9.19999981 1215
Cu 22.0799999 9.19999981 12.8800001 1216
Cu 22.0799999 9.19999981 16.5599995 1217
Cu 22.0799999 9.19999981 20.2399998 1218
Cu 22.0799999 9.19999981 23.9200001 1219
Cu 22.0799999 12.8800001 1.84000003 1220
Cu 22.0799999 12.8800001 5.51999998 1221
Cu 22.0799999 12.8800001 9.19999981 1222
Cu 22.0799999 12.8800001 12.8800001 1223
Cu 22.0799999 12.8800001 16.5599995 1224
Cu 22.0799999 12.8800001 20.2399998 1225
Cu 22.0799999 12.8800001 23.9200001 1226
Cu 22.0799999 16.5599995 1.84000003 1227
Cu 22.0799999 16.5599995 5.51999998 1228
Cu 22.0799999 16.5599995 9.19999981 1229
Cu 22.0799999 16.5599995 12.8800001 1230
Cu 22.0799999 16.5599995 16.5599995 1231
Cu 22.0799999 16.5599995 20.2399998 1232
Cu 22.0799999 16.5599995 23.9200001 1233
Cu 22.0799999 20.2399998 1.84000003 1234
Cu 22.0799999 20.2399998 5.51999998 1235
Cu 22.0799999 20.2399998 9.19999981 1236
Cu 22.0799999 20.2399998 12.8800001 1237
Cu 22.0799999 20.2399998 16.5599995 1238
Cu 22.0799999 20.2399998 20.2399998 1239
Cu 22.0799999 20.2399998 23.9200001 1240
Cu 22.0799999 23.9200001 1.84000003 1241
Cu 22.0799999 23.9200001 5.51999998 1242
Cu 22.0799999 23.9200001 9.19999981 1243
Cu 22.0799999 23.9200001 12.8800001 1244
Cu 22.0799999 23.9200001 16.5599995 1245
Cu 22.0799999 23.9200001 20.2399998 1246
Cu 22.0799999 23.9200001 23.9200001 1247
Cu 25.7600002 1.84000003 1.84000003 1248
Cu 25.7600002 1.84000003 5.51999998 1249
Cu 25.7600002 1.84000003 9.19999981 1250
Cu 25.7600002 1.84000003 12.8800001 1251
Cu 25.7600002 1.84000003 16.5599995 1252
Cu 25.7600002 1.84000003 20.2399998 1253
Cu 25.7600002 1.84000003 23.9200001 1254
Cu 25.7600002 5.51999998 1.84000003 1255
Cu 25.7600002 5.51999998 5.51999998 1256
Cu 25.7600002 5.51999998 9.19999981 1257
Cu 25.7600002 5.51999998 12.8800001 1258
Cu 25.7600002 5.51999998 16.5599995 1259
Cu 25.7600002 5.51999998 20.2399998 1260
Cu 25.7600002 5.51999998 23.9200001 1261
Cu 25.7600002 9.19999981 1.84000003 1262
Cu 25.7600002 9.19999981 5.51999998 1263
Cu 25.7600002 9.19999981 9.19999981 1264
Cu 25.7600002 9.19999981 12.8800001 1265
Cu 25.7600002 9.19999981 16.5599995 1266
Cu 25.7600002 9.19999981 20.2399998 1267
Cu 25.7600002 9.19999981 23.9200001 1268
Cu 25.7600002 12.8800001 1.84000003 1269
Cu 25.7600002 12.8800001 5.51999998 1270
Cu 25.7600002 12.8800001 9.19999981 1271
Cu 25.7600002 12.8800001 12.8800001 1272
Cu 25.7600002 12.8800001 16.5599995 1273
Cu 25.7600002 12.8800001 20.2399998 1274
Cu 25.7600002 12.8800001 23.9200001 1275
Cu 25.7600002 16.5599995 1.84000003 1276
Cu 25.7600002 16.5599995 5.51999998 1277
Cu 25.7600002 16.5599995 9.19999981 1278
Cu 25.7600002 16.5599995 12.8800001 1279
Cu 25.7600002 16.5599995 16.5599995 1280
Cu 25.7600002 16.5599995 20.2399998 1281
Cu 25.7600002 16.5599995 23.9200001 1282
Cu 25.7600002 20.2399998 1.84000003 1283
Cu 25.7600002 20.2399998 5.51999998 1284
Cu 25.7600002 20.2399998 9.19999981 1285
Cu 25.7600002 20.2399998 12.8800001 1286
Cu 25.7600002 20.2399998 16.5599995 1287
Cu 25.7600002 20.2399998 20.2399998 1288
Cu 25.7600002 20.2399998 23.9200001 1289
Cu 25.7600002 23.9200001 1.84000003 1290
Cu 25.7600002 23.9200001 5.51999998 1291
Cu 25.7600002 23.9200001 9.19999981 1292
Cu 25.7600002 23.9200001 12.8800001 1293
Cu 25.7600002 23.9200001 16.5599995 1294
Cu 25.7600002 23.9200001 20.2399998 1295
Cu 25.7600002 23.9200001 23.9200001 1296
Cu 1.84000003 0.0 1.84000003 1297
Cu 1.84000003 0.0 5.51999998 1298
Cu 1.84000003 0.0 9.19999981 1299
Cu 1.84000003 0.0 12.8800001 1300
Cu 1.84000003 0.0 16.5599995 1301
Cu 1.84000003 0.0 20.2399998 1302
Cu 1.84000003 0.0 23.9200001 1303
Cu 1.84000003 3.68000007 1.84000003 1304
Cu 1.84000003 3.68000007 5.51999998 1305
Cu 1.84000003 3.68000007 9.19999981 1306
Cu 1.84000003 3.68000007 12.8800001 1307
Cu 1.84000003 3.68000007 16.5599995 1308
Cu 1.84000003 3.68000007 20.2399998 1309
Cu 1.84000003 3.68000007 23.9200001 1310
Cu 1.84000003 7.36000013 1.84000003 1311
Cu 1.84000003 7.36000013 5.51999998 1312
Cu 1.84000003 7.36000013 9.19999981 1313
Cu 1.84000003 7.36000013 12.8800001 1314
Cu 1.84000003 7.36000013 16.5599995 1315
Cu 1.84000003 7.36000013 20.2399998 1316
Cu 1.84000003 7.36000013 23.9200001 1317
Cu 1.84000003 11.04 1.84000003 1318
Cu 1.84000003 11.04 5.51999998 1319
Cu 1.84000003 11.04 9.19999981 1320
Cu 1.84000003 11.04 12.8800001 1321
Cu 1.84000003 11.04 16.5599995 1322
Cu 1.84000003 11.04 20.2399998 1323
Cu 1.84000003 11.04 23.9200001 1324
Cu 1.84000003 14.7200003 1.84000003 1325
Cu 1.84000003 14.7200003 5.51999998 1326
Cu 1.84000003 14.7200003 9.19999981 1327
Cu 1.84000003 14.7200003 12.8800001 1328
Cu 1.84000003 14.7200003 16.5599995 1329
Cu 1.84000003 14.7200003 20.2399998 1330
Cu 1.84000003 14.7200003 23.9200001 1331
Cu 1.84000003 18.3999996 1.84000003 1332
Cu 1.84000003 18.3999996 5.51999998 1333
Cu 1.84000003 18.3999996 9.19999981 1334
Cu 1.84000003 18.3999996 12.8800001 1335
Cu 1.84000003 18.3999996 16.5599995 1336
Cu 1.84000003 18.3999996 20.2399998 1337
Cu 1.84000003 18.3999996 23.9200001 1338
Cu 1.84000003 22.0799999 1.84000003 1339
Cu 1.84000003 22.0799999 5.51999998 1340
Cu 1.84000003 22.0799999 9.19999981 1341
Cu 1.84000003 22.0799999 12.8800001 1342
Cu 1.84000003 22.0799999 16.5599995 1343
Cu 1.84000003 22.0799999 20.2399998 1344
Cu 1.84000003 22.0799999 23.9200001 1345
Cu 1.84000003 25.7600002 1.84000003 1346
Cu 1.84000003 25.7600002 5.51999998 1347
Cu 1.84000003 25.7600002 9.19999981 1348
Cu 1.84000003 25.7600002 12.8800001 1349
Cu 1.84000003 25.7600002 16.5599995 1350
Cu 1.84000003 25.7600002 20.2399998 1351
Cu 1.84000003 25.7600002 23.9200001 1352
Cu 5.51999998 0.0 1.84000003 1353
Cu 5.51999998 0.0 5.51999998 1354
Cu 5.51999998 0.0 9.19999981 1355
Cu 5.51999998 0.0 12.8800001 1356
Cu 5.51999998 0.0 16.5599995 1357
Cu 5.51999998 0.0 20.2399998 1358
Cu 5.51999998 0.0 23.9200001 1359
Cu 5.51999998 3.68000007 1.84000003 1360
Cu 5.51999998 3.68000007 5.51999998 1361
Cu 5.51999998 3.68000007 9.19999981 1362
Cu 5.51999998 3.68000007 12.8800001 1363
Cu 5.51999998 3.68000007 16.5599995 1364
Cu 5.51999998 3.68000007 20.2399998 1365
Cu 5.51999998 3.68000007 23.9200001 1366
Cu 5.51999998 7.36000013 1.84000003 1367
Cu 5.51999998 7.36000013 5.51999998 1368
Cu 5.51999998 7.36000013 9.19999981 1369
Cu 5.51999998 7.36000013 12.8800001 1370
Cu 5.51999998 7.36000013 16.5599995 1371
Cu 5.51999998 7.36000013 20.2399998 1372
Cu 5.51999998 7.36000013 23.9200001 1373
Cu 5.51999998 11.04 1.84000003 1374
Cu 5.51999998 11.04 5.51999998 1375
Cu 5.51999998 11.04 9.19999981 1376
Cu 5.51999998 11.04 12.8800001 1377
Cu 5.51999998 11.04 16.5599995 1378
Cu 5.51999998 11.04 20.2399998 1379
Cu 5.51999998 11.04 23.9200001 1380
Cu 5.51999998 14.7200003 1.84000003 1381
Cu 5.51999998 14.7200003 5.51999998 1382
Cu 5.51999998 14.7200003 9.19999981 1383
Cu 5.51999998 14.7200003 12.8800001 1384
Cu 5.51999998 14.7200003 16.5599995 1385
Cu 5.51999998 14.7200003 20.2399998 1386
Cu 5.51999998 14.7200003 23.9200001 1387
Cu 5.51999998 18.3999996 1.84000003 1388
Cu 5.51999998 18.3999996 5.51999998 1389
Cu 5.51999998 18.3999996 9.19999981 1390
Cu 5.51999998 18.3999996 12.8800001 1391
Cu 5.51999998 18.3999996 16.5599995 1392
Cu 5.51999998 18.3999996 20.2399998 1393
Cu 5.51999998 18.3999996 23.9200001 1394
Cu 5.51999998 22.0799999 1.84000003 1395
Cu 5.51999998 22.0799999 5.51999998 1396
Cu 5.51999998 22.0799999 9.19999981 1397
Cu 5.51999998 22.0799999 12.8800001 1398
Cu 5.51999998 22.0799999 16.5599995 1399
Cu 5.51999998 22.0799999 20.2399998 1400
Cu 5.51999998 22.0799999 23.9200001 1401
Cu 5.51999998 25.7600002 1.84000003 1402
Cu 5.51999998 25.7600002 5.51999998 1403
Cu 5.51999998 25.7600002 9.19999981 1404
Cu 5.51999998 25.7600002 12.8800001 1405
Cu 5.51999998 25.7600002 16.5599995 1406
Cu 5.51999998 25.7600002 20.2399998 1407
Cu 5.51999998 25.7600002 23.9200001 1408
Cu 9.19999981 0.0 1.84000003 1409
Cu 9.19999981 0.0 5.51999998 1410
Cu 9.19999981 0.0 9.19999981 1411
Cu 9.19999981 0.0 12.8800001 1412
Cu 9.19999981 0.0 16.5599995 1413
Cu 9.19999981 0.0 20.2399998 1414
Cu 9.19999981 0.0 23.9200001 1415
Cu 9.19999981 3.68000007 1.84000003 1416
Cu 9.19999981 3.68000007 5.51999998 1417
Cu 9.19999981 3.68000007 9.19999981 1418
Cu 9.19999981 3.68000007 12.8800001 1419
Cu 9.19999981 3.68000007 16.5599995 1420
Cu 9.19999981 3.68000007 20.2399998 1421
Cu 9.19999981 3.68000007 23.9200001 1422
Cu 9.19999981 7.36000013 1.84000003 1423
Cu 9.19999981 7.36000013 5.51999998 1424
Cu 9.19999981 7.36000013 9.19999981 1425
Cu 9.19999981 7.36000013 12.8800001 1426
Cu 9.19999981 7.36000013 16.5599995 1427
Cu 9.19999981 7.36000013 20.2399998 1428
Cu 9.19999981 7.36000013 23.9200001 1429
Cu 9.19999981 11.04 1.84000003 1430
Cu 9.19999981 11.04 5.51999998 1431
Cu 9.19999981 11.04 9.19999981 1432
Cu 9.19999981 11.04 12.8800001 1433
Cu 9.19999981 11.04 16.5599995 1434
Cu 9.19999981 11.04 20.2399998 1435
Cu 9.19999981 11.04 23.9200001 1436
Cu 9.19999981 14.7200003 1.84000003 1437
Cu 9.19999981 14.7200003 5.51999998 1438
Cu 9.19999981 14.7200003 9.19999981 1439
Cu 9.19999981 14.7200003 12.8800001 1440
Cu 9.19999981 14.7200003 16.5599995 1441
Cu 9.19999981 14.7200003 20.2399998 1442
Cu 9.19999981 14.7200003 23.9200001 1443
Cu 9.19999981 18.3999996 1.84000003 1444
Cu 9.19999981 18.3999996 5.51999998 1445
Cu 9.19999981 18.3999996 9.19999981 1446
Cu 9.19999981 18.3999996 12.8800001 1447
Cu 9.19999981 18.3999996 16.5599995 1448
Cu 9.19999981 18.3999996 20.2399998 1449
Cu 9.19999981 18.3999996 23.9200001 1450
Cu 9.19999981 22.0799999 1.84000003 1451
Cu 9.19999981 22.0799999 5.51999998 1452
Cu 9.19999981 22.0799999 9.19999981 1453
Cu 9.19999981 22.0799999 12.8800001 1454
Cu 9.19999981 22.0799999 16.5599995 1455
Cu 9.19999981 22.0799999 20.2399998 1456
Cu 9.19999981 22.0799999 23.9200001 1457
Cu 9.19999981 25.7600002 1.84000003 1458
Cu 9.19999981 25.7600002 5.51999998 1459
Cu 9.19999981 25.7600002 9.19999981 1460
Cu 9.19999981 25.7600002 12.8800001 1461
Cu 9.19999981 25.7600002 16.5599995 1462
Cu 9.19999981 25.7600002 20.2399998 1463
Cu 9.19999981 25.7600002 23.9200001 1464
Cu 12.8800001 0.0 1.84000003 1465
Cu 12.8800001 0.0 5.51999998 1466
Cu 12.8800001 0.0 9.19999981 1467
Cu 12.8800001 0.0 12.8800001 1468
Cu 12.8800001 0.0 16.5599995 1469
Cu 12.8800001 0.0 20.2399998 1470
Cu 12.8800001 0.0 23.9200001 1471
Cu 12.8800001 3.68000007 1.84000003 1472
Cu 12.8800001 3.68000007 5.51999998 1473
Cu 12.8800001 3.68000007 9.19999981 1474
Cu 12.8800001 3.68000007 12.8800001 1475
Cu 12.8800001 3.68000007 16.5599995 1476
Cu 12.8800001 3.68000007 20.2399998 1477
Cu 12.8800001 3.68000007 23.9200001 1478
Cu 12.8800001 7.36000013 1.84000003 1479
Cu 12.8800001 7.36000013 5.51999998 1480
Cu 12.8800001 7.36000013 9.19999981 1481
Cu 12.8800001 7.36000013 12.8800001 1482
Cu 12.8800001 7.36000013 16.5599995 1483
Cu 12.8800001 7.36000013 20.2399998 1484
Cu 12.8800001 7.36000013 23.9200001 1485
Cu 12.8800001 11.04 1.84000003 1486
Cu 12.8800001 11.04 5.51999998 1487
Cu 12.8800001 11.04 9.19999981 1488
Cu 12.8800001 11.04 12.8800001 1489
Cu 12.8800001 11.04 16.5599995 1490
Cu 12.8800001 11.04 20.2399998 1491
Cu 12.8800001 11.04 23.9200001 1492
Cu 12.8800001 14.7200003 1.84000003 1493
Cu 12.8800001 14.7200003 5.51999998 1494
Cu 12.8800001 14.7200003 9.19999981 1495
Cu 12.8800001 14.7200003 12.8800001 1496
Cu 12.8800001 14.7200003 16.5599995 1497
Cu 12.8800001 14.7200003 20.2399998 1498
Cu 12.8800001 14.7200003 23.9200001 1499
Cu 12.8800001 18.3999996 1.84000003 1500
Cu 12.8800001 18.3999996 5.51999998 1501
Cu 12.8800001 18.3999996 9.19999981 1502
Cu 12.8800001 18.3999996 12.8800001 1503
Cu 12.8800001 18.3999996 16.5599995 1504
Cu 12.8800001 18.3999996 20.2399998 1505
Cu 12.8800001 18.3999996 23.9200001 1506
Cu 12.8800001 22.0799999 1.84000003 1507
Cu 12.8800001 22.0799999 5.51999998 1508
Cu 12.8800001 22.0799999 9.19999981 1509
Cu 12.8800001 22.0799999 12.8800001 1510
Cu 12.8800001 22.0799999 16.5599995 1511
Cu 12.8800001 22.0799999 20.2399998 1512
Cu 12.8800001 22.0799999 23.9200001 1513
Cu 12.8800001 25.7600002 1.84000003 1514
Cu 12.8800001 25.7600002 5.51999998 1515
Cu 12.8800001 25.7600002 9.19999981 1516
Cu 12.8800001 25.7600002 12.8800001 1517
Cu 12.8800001 25.7600002 16.5599995 1518
Cu 12.8800001 25.7600002 20.2399998 1519
Cu 12.8800001 25.7600002 23.9200001 1520
Cu 16.5599995 0.0 1.84000003 1521
Cu 16.5599995 0.0 5.51999998 1522
Cu 16.5599995 0.0 9.19999981 1523
Cu 16.5599995 0.0 12.8800001 1524
Cu 16.5599995 0.0 16.5599995 1525
Cu 16.5599995 0.0 20.2399998 1526
Cu 16.5599995 0.0 23.9200001 1527
Cu 16.5599995 3.68000007 1.84000003 1528
Cu 16.5599995 3.68000007 5.51999998 1529
Cu 16.5599995 3.68000007 9.19999981 1530
Cu 16.5599995 3.68000007 12.8800001 1531
Cu 16.5599995 3.68000007 16.5599995 1532
Cu 16.5599995 3.68000007 20.2399998 1533
Cu 16.5599995 3.68000007 23.9200001 1534
Cu 16.5599995 7.36000013 1.84000003 1535
Cu 16.5599995 7.36000013 5.51999998 1536
Cu 16.5599995 7.36000013 9.19999981 1537
Cu 16.5599995 7.36000013 12.8800001 1538
Cu 16.5599995 7.36000013 16.5599995 1539
Cu 16.5599995 7.36000013 20.2399998 1540
Cu 16.5599995 7.36000013 23.9200001 1541
Cu 16.5599995 11.04 1.84000003 1542
Cu 16.5599995 11.04 5.51999998 1543
Cu 16.5599995 11.04 9.19999981 1544
Cu 16.5599995 11.04 12.8800001 1545
Cu 16.5599995 11.04 16.5599995 1546
Cu 16.5599995 11.04 20.2399998 1547
Cu 16.5599995 11.04 23.9200001 1548
Cu 16.5599995 14.7200003 1.84000003 1549
Cu 16.5599995 14.7200003 5.51999998 1550
Cu 16.5599995 14.7200003 9.19999981 1551
Cu 16.5599995 14.7200003 12.8800001 1552
Cu 16.5599995 14.7200003 16.5599995 1553
Cu 16.5599995 14.7200003 20.2399998 1554
Cu 16.5599995 14.7200003 23.9200001 1555
Cu 16.5599995 18.3999996 1.84000003 1556
Cu 16.5599995 18.3999996 5.51999998 1557
Cu 16.5599995 18.3999996 9.19999981 1558
Cu 16.5599995 18.3999996 12.8800001 1559
Cu 16.5599995 18.3999996 16.5599995 1560
Cu 16.5599995 18.3999996 20.2399998 1561
Cu 16.5599995 18.3999996 23.9200001 1562
Cu 16.5599995 22.0799999 1.84000003 1563
Cu 16.5599995 22.0799999 5.51999998 1564
Cu 16.5599995 22.0799999 9.19999981 1565
Cu 16.5599995 22.0799999 12.8800001 1566
Cu 16.5599995 22.0799999 16.5599995 1567
Cu 16.5599995 22.0799999 20.2399998 1568
Cu 16.5599995 22.0799999 23.9200001 1569
Cu 16.5599995 25.7600002 1.84000003 1570
Cu 16.5599995 25.7600002 5.51999998 1571
Cu 16.5599995 25.7600002 9.19999981 1572
Cu 16.5599995 25.7600002 12.8800001 1573
Cu 16.5599995 25.7600002 16.5599995 1574
Cu 16.5599995 25.7600002 20.2399998 1575
Cu 16.5599995 25.7600002 23.9200001 1576
Cu 20.2399998 0.0 1.84000003 1577
Cu 20.2399998 0.0 5.51999998 1578
Cu 20.2399998 0.0 9.19999981 1579
Cu 20.2399998 0.0 12.8800001 1580
Cu 20.2399998 0.0 16.5599995 1581
Cu 20.2399998 0.0 20.2399998 1582
Cu 20.2399998 0.0 23.9200001 1583
Cu 20.2399998 3.68000007 1.84000003 1584
Cu 20.2399998 3.68000007 5.51999998 1585
Cu 20.2399998 3.68000007 9.19999981 1586
Cu 20.2399998 3.68000007 12.8800001 1587
Cu 20.2399998 3.68000007 16.5599995 1588
Cu 20.2399998 3.68000007 20.2399998 1589
Cu 20.2399998 3.68000007 23.9200001 1590
Cu 20.2399998 7.36000013 1.84000003 1591
Cu 20.2399998 7.36000013 5.51999998 1592
Cu 20.2399998 7.36000013 9.19999981 1593
Cu 20.2399998 7.36000013 12.8800001 1594
Cu 20.2399998 7.36000013 16.5599995 1595
Cu 20.2399998 7.36000013 20.2399998 1596
Cu 20.2399998 7.36000013 23.9200001 1597
Cu 20.2399998 11.04 1.84000003 1598
Cu 20.2399998 11.04 5.51999998 1599
Cu 20.2399998 11.04 9.19999981 1600
Cu 20.2399998 11.04 12.8800001 1601
Cu 20.2399998 11.04 16.5599995 1602
Cu 20.2399998 11.04 20.2399998 1603
Cu 20.2399998 11.04 23.9200001 1604
Cu 20.2399998 14.7200003 1.84000003 1605
Cu 20.2399998 14.7200003 5.51999998 1606
Cu 20.2399998 14.7200003 9.19999981 1607
Cu 20.2399998 14.7200003 12.8800001 1608
Cu 20.2399998 14.7200003 16.5599995 1609
Cu 20.2399998 14.7200003 20.2399998 1610
Cu 20.2399998 14.7200003 23.9200001 1611
Cu 20.2399998 18.3999996 1.84000003 1612
Cu 20.2399998 18.3999996 5.51999998 1613
Cu 20.2399998 18.3999996 9.19999981 1614
Cu 20.2399998 18.3999996 12.8800001 1615
Cu 20.2399998 18.3999996 16.5599995 1616
Cu 20.2399998 18.3999996 20.2399998 1617
Cu 20.2399998 18.3999996 23.9200001 1618
Cu 20.2399998 22.0799999 1.84000003 1619
Cu 20.2399998 22.0799999 5.51999998 1620
Cu 20.2399998 22.0799999 9.19999981 1621
Cu 20.2399998 22.0799999 12.8800001 1622
Cu 20.2399998 22.0799999 16.5599995 1623
Cu 20.2399998 22.0799999 20.2399998 1624
Cu 20.2399998 22.0799999 23.9200001 1625
Cu 20.2399998 25.7600002 1.84000003 1626
Cu 20.2399998 25.7600002 5.51999998 1627
Cu 20.2399998 25.7600002 9.19999981 1628
Cu 20.2399998 25.7600002 12.8800001 1629
Cu 20.2399998 25.7600002 16.5599995 1630
Cu 20.2399998 25.7600002 20.2399998 1631
Cu 20.2399998 25.7600002 23.9200001 1632
Cu 23.9200001 0.0 1.84000003 1633
Cu 23.9200001 0.0 5.51999998 1634
Cu 23.9200001 0.0 9.19999981 1635
Cu 23.9200001 0.0 12.8800001 1636
Cu 23.9200001 0.0 16.5599995 1637
Cu 23.9200001 0.0 20.2399998 1638
Cu 23.9200001 0.0 23.9200001 1639
Cu 23.9200001 3.68000007 1.84000003 1640
Cu 23.9200001 3.68000007 5.51999998 1641
Cu 23.9200001 3.68000007 9.19999981 1642
Cu 23.9200001 3.68000007 12.8800001 1643
Cu 23.9200001 3.68000007 16.5599995 1644
Cu 23.9200001 3.68000007 20.2399998 1645
Cu 23.9200001 3.68000007 23.9200001 1646
Cu 23.9200001 7.36000013 1.84000003 1647
Cu 23.9200001 7.36000013 5.51999998 1648
Cu 23.9200001 7.36000013 9.19999981 1649
Cu 23.9200001 7.36000013 12.8800001 1650
Cu 23.9200001 7.36000013 16.5599995 1651
Cu 23.9200001 7.36000013 20.2399998 1652
Cu 23.9200001 7.36000013 23.9200001 1653
Cu 23.9200001 11.04 1.84000003 1654
Cu 23.9200001 11.04 5.51999998 1655
Cu 23.9200001 11.04 9.19999981 1656
Cu 23.9200001 11.04 12.8800001 1657
Cu 23.9200001 11.04 16.5599995 1658
Cu 23.9200001 11.04 20.2399998 1659
Cu 23.9200001 11.04 23.9200001 1660
Cu 23.9200001 14.7200003 1.84000003 1661
Cu 23.9200001 14.7200003 5.51999998 1662
Cu 23.9200001 14.7200003 9.19999981 1663
Cu 23.9200001 14.7200003 12.8800001 1664
Cu 23.9200001 14.7200003 16.5599995 1665
Cu 23.9200001 14.7200003 20.2399998 1666
Cu 23.9200001 14.7200003 23.9200001 1667
Cu 23.9200001 18.3999996 1.84000003 1668
Cu 23.9200001 18.3999996 5.51999998 1669
Cu 23.9200001 18.3999996 9.19999981 1670
Cu 23.9200001 18.3999996 12.8800001 1671
Cu 23.9200001 18.3999996 16.5599995 1672
Cu 23.9200001 18.3999996 20.2399998 1673
Cu 23.9200001 18.3999996 23.9200001 1674
Cu 23.9200001 22.0799999 1.84000003 1675
Cu 23.9200001 22.0799999 5.51999998 1676
Cu 23.9200001 22.0799999 9.19999981 1677
Cu 23.9200001 22.0799999 12.8800001 1678
Cu 23.9200001 22.0799999 16.5599995 1679
Cu 23.9200001 22.0799999 20.2399998 1680
Cu 23.9200001 22.0799999 23.9200001 1681
Cu 23.9200001 25.7600002 1.84000003 1682
Cu 23.9200001 25.7600002 5.51999998 1683
Cu 23.9200001 25.7600002 9.19999981 1684
Cu 23.9200001 25.7600002 12.8800001 1685
Cu 23.9200001 25.7600002 16.5599995 1686
Cu 23.9200001 25.7600002 20.2399998 1687
Cu 23.9200001 25.7600002 23.9200001 1688
