1688
Generated XYZ file with optional properties
Cu -12.880000 -12.880000 -12.880000
Cu -12.880000 -12.880000 -9.200000
Cu -12.880000 -12.880000 -5.520000
Cu -12.880000 -12.880000 -1.840000
Cu -12.880000 -12.880000 1.840000
Cu -12.880000 -12.880000 5.520000
Cu -12.880000 -12.880000 9.200000
Cu -12.880000 -12.880000 12.880000
Cu -12.880000 -9.200000 -12.880000
Cu -12.880000 -9.200000 -9.200000
Cu -12.880000 -9.200000 -5.520000
Cu -12.880000 -9.200000 -1.840000
Cu -12.880000 -9.200000 1.840000
Cu -12.880000 -9.200000 5.520000
Cu -12.880000 -9.200000 9.200000
Cu -12.880000 -9.200000 12.880000
Cu -12.880000 -5.520000 -12.880000
Cu -12.880000 -5.520000 -9.200000
Cu -12.880000 -5.520000 -5.520000
Cu -12.880000 -5.520000 -1.840000
Cu -12.880000 -5.520000 1.840000
Cu -12.880000 -5.520000 5.520000
Cu -12.880000 -5.520000 9.200000
Cu -12.880000 -5.520000 12.880000
Cu -12.880000 -1.840000 -12.880000
Cu -12.880000 -1.840000 -9.200000
Cu -12.880000 -1.840000 -5.520000
Cu -12.880000 -1.840000 -1.840000
Cu -12.880000 -1.840000 1.840000
Cu -12.880000 -1.840000 5.520000
Cu -12.880000 -1.840000 9.200000
Cu -12.880000 -1.840000 12.880000
Cu -12.880000 1.840000 -12.880000
Cu -12.880000 1.840000 -9.200000
Cu -12.880000 1.840000 -5.520000
Cu -12.880000 1.840000 -1.840000
Cu -12.880000 1.840000 1.840000
Cu -12.880000 1.840000 5.520000
Cu -12.880000 1.840000 9.200000
Cu -12.880000 1.840000 12.880000
Cu -12.880000 5.520000 -12.880000
Cu -12.880000 5.520000 -9.200000
Cu -12.880000 5.520000 -5.520000
Cu -12.880000 5.520000 -1.840000
Cu -12.880000 5.520000 1.840000
Cu -12.880000 5.520000 5.520000
Cu -12.880000 5.520000 9.200000
Cu -12.880000 5.520000 12.880000
Cu -12.880000 9.200000 -12.880000
Cu -12.880000 9.200000 -9.200000
Cu -12.880000 9.200000 -5.520000
Cu -12.880000 9.200000 -1.840000
Cu -12.880000 9.200000 1.840000
Cu -12.880000 9.200000 5.520000
Cu -12.880000 9.200000 9.200000
Cu -12.880000 9.200000 12.880000
Cu -12.880000 12.880000 -12.880000
Cu -12.880000 12.880000 -9.200000
Cu -12.880000 12.880000 -5.520000
Cu -12.880000 12.880000 -1.840000
Cu -12.880000 12.880000 1.840000
Cu -12.880000 12.880000 5.520000
Cu -12.880000 12.880000 9.200000
Cu -12.880000 12.880000 12.880000
Cu -9.200000 -12.880000 -12.880000
Cu -9.200000 -12.880000 -9.200000
Cu -9.200000 -12.880000 -5.520000
Cu -9.200000 -12.880000 -1.840000
Cu -9.200000 -12.880000 1.840000
Cu -9.200000 -12.880000 5.520000
Cu -9.200000 -12.880000 9.200000
Cu -9.200000 -12.880000 12.880000
Cu -9.200000 -9.200000 -12.880000
Cu -9.200000 -9.200000 -9.200000
Cu -9.200000 -9.200000 -5.520000
Cu -9.200000 -9.200000 -1.840000
Cu -9.200000 -9.200000 1.840000
Cu -9.200000 -9.200000 5.520000
Cu -9.200000 -9.200000 9.200000
Cu -9.200000 -9.200000 12.880000
Cu -9.200000 -5.520000 -12.880000
Cu -9.200000 -5.520000 -9.200000
Cu -9.200000 -5.520000 -5.520000
Cu -9.200000 -5.520000 -1.840000
Cu -9.200000 -5.520000 1.840000
Cu -9.200000 -5.520000 5.520000
Cu -9.200000 -5.520000 9.200000
Cu -9.200000 -5.520000 12.880000
Cu -9.200000 -1.840000 -12.880000
Cu -9.200000 -1.840000 -9.200000
Cu -9.200000 -1.840000 -5.520000
Cu -9.200000 -1.840000 -1.840000
Cu -9.200000 -1.840000 1.840000
Cu -9.200000 -1.840000 5.520000
Cu -9.200000 -1.840000 9.200000
Cu -9.200000 -1.840000 12.880000
Cu -9.200000 1.840000 -12.880000
Cu -9.200000 1.840000 -9.200000
Cu -9.200000 1.840000 -5.520000
Cu -9.200000 1.840000 -1.840000
Cu -9.200000 1.840000 1.840000
Cu -9.200000 1.840000 5.520000
Cu -9.200000 1.840000 9.200000
Cu -9.200000 1.840000 12.880000
Cu -9.200000 5.520000 -12.880000
Cu -9.200000 5.520000 -9.200000
Cu -9.200000 5.520000 -5.520000
Cu -9.200000 5.520000 -1.840000
Cu -9.200000 5.520000 1.840000
Cu -9.200000 5.520000 5.520000
Cu -9.200000 5.520000 9.200000
Cu -9.200000 5.520000 12.880000
Cu -9.200000 9.200000 -12.880000
Cu -9.200000 9.200000 -9.200000
Cu -9.200000 9.200000 -5.520000
Cu -9.200000 9.200000 -1.840000
Cu -9.200000 9.200000 1.840000
Cu -9.200000 9.200000 5.520000
Cu -9.200000 9.200000 9.200000
Cu -9.200000 9.200000 12.880000
Cu -9.200000 12.880000 -12.880000
Cu -9.200000 12.880000 -9.200000
Cu -9.200000 12.880000 -5.520000
Cu -9.200000 12.880000 -1.840000
Cu -9.200000 12.880000 1.840000
Cu -9.200000 12.880000 5.520000
Cu -9.200000 12.880000 9.200000
Cu -9.200000 12.880000 12.880000
Cu -5.520000 -12.880000 -12.880000
Cu -5.520000 -12.880000 -9.200000
Cu -5.520000 -12.880000 -5.520000
Cu -5.520000 -12.880000 -1.840000
Cu -5.520000 -12.880000 1.840000
Cu -5.520000 -12.880000 5.520000
Cu -5.520000 -12.880000 9.200000
Cu -5.520000 -12.880000 12.880000
Cu -5.520000 -9.200000 -12.880000
Cu -5.520000 -9.200000 -9.200000
Cu -5.520000 -9.200000 -5.520000
Cu -5.520000 -9.200000 -1.840000
Cu -5.520000 -9.200000 1.840000
Cu -5.520000 -9.200000 5.520000
Cu -5.520000 -9.200000 9.200000
Cu -5.520000 -9.200000 12.880000
Cu -5.520000 -5.520000 -12.880000
Cu -5.520000 -5.520000 -9.200000
Cu -5.520000 -5.520000 -5.520000
Cu -5.520000 -5.520000 -1.840000
Cu -5.520000 -5.520000 1.840000
Cu -5.520000 -5.520000 5.520000
Cu -5.520000 -5.520000 9.200000
Cu -5.520000 -5.520000 12.880000
Cu -5.520000 -1.840000 -12.880000
Cu -5.520000 -1.840000 -9.200000
Cu -5.520000 -1.840000 -5.520000
Cu -5.520000 -1.840000 -1.840000
Cu -5.520000 -1.840000 1.840000
Cu -5.520000 -1.840000 5.520000
Cu -5.520000 -1.840000 9.200000
Cu -5.520000 -1.840000 12.880000
Cu -5.520000 1.840000 -12.880000
Cu -5.520000 1.840000 -9.200000
Cu -5.520000 1.840000 -5.520000
Cu -5.520000 1.840000 -1.840000
Cu -5.520000 1.840000 1.840000
Cu -5.520000 1.840000 5.520000
Cu -5.520000 1.840000 9.200000
Cu -5.520000 1.840000 12.880000
Cu -5.520000 5.520000 -12.880000
Cu -5.520000 5.520000 -9.200000
Cu -5.520000 5.520000 -5.520000
Cu -5.520000 5.520000 -1.840000
Cu -5.520000 5.520000 1.840000
Cu -5.520000 5.520000 5.520000
Cu -5.520000 5.520000 9.200000
Cu -5.520000 5.520000 12.880000
Cu -5.520000 9.200000 -12.880000
Cu -5.520000 9.200000 -9.200000
Cu -5.520000 9.200000 -5.520000
Cu -5.520000 9.200000 -1.840000
Cu -5.520000 9.200000 1.840000
Cu -5.520000 9.200000 5.520000
Cu -5.520000 9.200000 9.200000
Cu -5.520000 9.200000 12.880000
Cu -5.520000 12.880000 -12.880000
Cu -5.520000 12.880000 -9.200000
Cu -5.520000 12.880000 -5.520000
Cu -5.520000 12.880000 -1.840000
Cu -5.520000 12.880000 1.840000
Cu -5.520000 12.880000 5.520000
Cu -5.520000 12.880000 9.200000
Cu -5.520000 12.880000 12.880000
Cu -1.840000 -12.880000 -12.880000
Cu -1.840000 -12.880000 -9.200000
Cu -1.840000 -12.880000 -5.520000
Cu -1.840000 -12.880000 -1.840000
Cu -1.840000 -12.880000 1.840000
Cu -1.840000 -12.880000 5.520000
Cu -1.840000 -12.880000 9.200000
Cu -1.840000 -12.880000 12.880000
Cu -1.840000 -9.200000 -12.880000
Cu -1.840000 -9.200000 -9.200000
Cu -1.840000 -9.200000 -5.520000
Cu -1.840000 -9.200000 -1.840000
Cu -1.840000 -9.200000 1.840000
Cu -1.840000 -9.200000 5.520000
Cu -1.840000 -9.200000 9.200000
Cu -1.840000 -9.200000 12.880000
Cu -1.840000 -5.520000 -12.880000
Cu -1.840000 -5.520000 -9.200000
Cu -1.840000 -5.520000 -5.520000
Cu -1.840000 -5.520000 -1.840000
Cu -1.840000 -5.520000 1.840000
Cu -1.840000 -5.520000 5.520000
Cu -1.840000 -5.520000 9.200000
Cu -1.840000 -5.520000 12.880000
Cu -1.840000 -1.840000 -12.880000
Cu -1.840000 -1.840000 -9.200000
Cu -1.840000 -1.840000 -5.520000
Cu -1.840000 -1.840000 -1.840000
Cu -1.840000 -1.840000 1.840000
Cu -1.840000 -1.840000 5.520000
Cu -1.840000 -1.840000 9.200000
Cu -1.840000 -1.840000 12.880000
Cu -1.840000 1.840000 -12.880000
Cu -1.840000 1.840000 -9.200000
Cu -1.840000 1.840000 -5.520000
Cu -1.840000 1.840000 -1.840000
Cu -1.840000 1.840000 1.840000
Cu -1.840000 1.840000 5.520000
Cu -1.840000 1.840000 9.200000
Cu -1.840000 1.840000 12.880000
Cu -1.840000 5.520000 -12.880000
Cu -1.840000 5.520000 -9.200000
Cu -1.840000 5.520000 -5.520000
Cu -1.840000 5.520000 -1.840000
Cu -1.840000 5.520000 1.840000
Cu -1.840000 5.520000 5.520000
Cu -1.840000 5.520000 9.200000
Cu -1.840000 5.520000 12.880000
Cu -1.840000 9.200000 -12.880000
Cu -1.840000 9.200000 -9.200000
Cu -1.840000 9.200000 -5.520000
Cu -1.840000 9.200000 -1.840000
Cu -1.840000 9.200000 1.840000
Cu -1.840000 9.200000 5.520000
Cu -1.840000 9.200000 9.200000
Cu -1.840000 9.200000 12.880000
Cu -1.840000 12.880000 -12.880000
Cu -1.840000 12.880000 -9.200000
Cu -1.840000 12.880000 -5.520000
Cu -1.840000 12.880000 -1.840000
Cu -1.840000 12.880000 1.840000
Cu -1.840000 12.880000 5.520000
Cu -1.840000 12.880000 9.200000
Cu -1.840000 12.880000 12.880000
Cu 1.840000 -12.880000 -12.880000
Cu 1.840000 -12.880000 -9.200000
Cu 1.840000 -12.880000 -5.520000
Cu 1.840000 -12.880000 -1.840000
Cu 1.840000 -12.880000 1.840000
Cu 1.840000 -12.880000 5.520000
Cu 1.840000 -12.880000 9.200000
Cu 1.840000 -12.880000 12.880000
Cu 1.840000 -9.200000 -12.880000
Cu 1.840000 -9.200000 -9.200000
Cu 1.840000 -9.200000 -5.520000
Cu 1.840000 -9.200000 -1.840000
Cu 1.840000 -9.200000 1.840000
Cu 1.840000 -9.200000 5.520000
Cu 1.840000 -9.200000 9.200000
Cu 1.840000 -9.200000 12.880000
Cu 1.840000 -5.520000 -12.880000
Cu 1.840000 -5.520000 -9.200000
Cu 1.840000 -5.520000 -5.520000
Cu 1.840000 -5.520000 -1.840000
Cu 1.840000 -5.520000 1.840000
Cu 1.840000 -5.520000 5.520000
Cu 1.840000 -5.520000 9.200000
Cu 1.840000 -5.520000 12.880000
Cu 1.840000 -1.840000 -12.880000
Cu 1.840000 -1.840000 -9.200000
Cu 1.840000 -1.840000 -5.520000
Cu 1.840000 -1.840000 -1.840000
Cu 1.840000 -1.840000 1.840000
Cu 1.840000 -1.840000 5.520000
Cu 1.840000 -1.840000 9.200000
Cu 1.840000 -1.840000 12.880000
Cu 1.840000 1.840000 -12.880000
Cu 1.840000 1.840000 -9.200000
Cu 1.840000 1.840000 -5.520000
Cu 1.840000 1.840000 -1.840000
Cu 1.840000 1.840000 1.840000
Cu 1.840000 1.840000 5.520000
Cu 1.840000 1.840000 9.200000
Cu 1.840000 1.840000 12.880000
Cu 1.840000 5.520000 -12.880000
Cu 1.840000 5.520000 -9.200000
Cu 1.840000 5.520000 -5.520000
Cu 1.840000 5.520000 -1.840000
Cu 1.840000 5.520000 1.840000
Cu 1.840000 5.520000 5.520000
Cu 1.840000 5.520000 9.200000
Cu 1.840000 5.520000 12.880000
Cu 1.840000 9.200000 -12.880000
Cu 1.840000 9.200000 -9.200000
Cu 1.840000 9.200000 -5.520000
Cu 1.840000 9.200000 -1.840000
Cu 1.840000 9.200000 1.840000
Cu 1.840000 9.200000 5.520000
Cu 1.840000 9.200000 9.200000
Cu 1.840000 9.200000 12.880000
Cu 1.840000 12.880000 -12.880000
Cu 1.840000 12.880000 -9.200000
Cu 1.840000 12.880000 -5.520000
Cu 1.840000 12.880000 -1.840000
Cu 1.840000 12.880000 1.840000
Cu 1.840000 12.880000 5.520000
Cu 1.840000 12.880000 9.200000
Cu 1.840000 12.880000 12.880000
Cu 5.520000 -12.880000 -12.880000
Cu 5.520000 -12.880000 -9.200000
Cu 5.520000 -12.880000 -5.520000
Cu 5.520000 -12.880000 -1.840000
Cu 5.520000 -12.880000 1.840000
Cu 5.520000 -12.880000 5.520000
Cu 5.520000 -12.880000 9.200000
Cu 5.520000 -12.880000 12.880000
Cu 5.520000 -9.200000 -12.880000
Cu 5.520000 -9.200000 -9.200000
Cu 5.520000 -9.200000 -5.520000
Cu 5.520000 -9.200000 -1.840000
Cu 5.520000 -9.200000 1.840000
Cu 5.520000 -9.200000 5.520000
Cu 5.520000 -9.200000 9.200000
Cu 5.520000 -9.200000 12.880000
Cu 5.520000 -5.520000 -12.880000
Cu 5.520000 -5.520000 -9.200000
Cu 5.520000 -5.520000 -5.520000
Cu 5.520000 -5.520000 -1.840000
Cu 5.520000 -5.520000 1.840000
Cu 5.520000 -5.520000 5.520000
Cu 5.520000 -5.520000 9.200000
Cu 5.520000 -5.520000 12.880000
Cu 5.520000 -1.840000 -12.880000
Cu 5.520000 -1.840000 -9.200000
Cu 5.520000 -1.840000 -5.520000
Cu 5.520000 -1.840000 -1.840000
Cu 5.520000 -1.840000 1.840000
Cu 5.520000 -1.840000 5.520000
Cu 5.520000 -1.840000 9.200000
Cu 5.520000 -1.840000 12.880000
Cu 5.520000 1.840000 -12.880000
Cu 5.520000 1.840000 -9.200000
Cu 5.520000 1.840000 -5.520000
Cu 5.520000 1.840000 -1.840000
Cu 5.520000 1.840000 1.840000
Cu 5.520000 1.840000 5.520000
Cu 5.520000 1.840000 9.200000
Cu 5.520000 1.840000 12.880000
Cu 5.520000 5.520000 -12.880000
Cu 5.520000 5.520000 -9.200000
Cu 5.520000 5.520000 -5.520000
Cu 5.520000 5.520000 -1.840000
Cu 5.520000 5.520000 1.840000
Cu 5.520000 5.520000 5.520000
Cu 5.520000 5.520000 9.200000
Cu 5.520000 5.520000 12.880000
Cu 5.520000 9.200000 -12.880000
Cu 5.520000 9.200000 -9.200000
Cu 5.520000 9.200000 -5.520000
Cu 5.520000 9.200000 -1.840000
Cu 5.520000 9.200000 1.840000
Cu 5.520000 9.200000 5.520000
Cu 5.520000 9.200000 9.200000
Cu 5.520000 9.200000 12.880000
Cu 5.520000 12.880000 -12.880000
Cu 5.520000 12.880000 -9.200000
Cu 5.520000 12.880000 -5.520000
Cu 5.520000 12.880000 -1.840000
Cu 5.520000 12.880000 1.840000
Cu 5.520000 12.880000 5.520000
Cu 5.520000 12.880000 9.200000
Cu 5.520000 12.880000 12.880000
Cu 9.200000 -12.880000 -12.880000
Cu 9.200000 -12.880000 -9.200000
Cu 9.200000 -12.880000 -5.520000
Cu 9.200000 -12.880000 -1.840000
Cu 9.200000 -12.880000 1.840000
Cu 9.200000 -12.880000 5.520000
Cu 9.200000 -12.880000 9.200000
Cu 9.200000 -12.880000 12.880000
Cu 9.200000 -9.200000 -12.880000
Cu 9.200000 -9.200000 -9.200000
Cu 9.200000 -9.200000 -5.520000
Cu 9.200000 -9.200000 -1.840000
Cu 9.200000 -9.200000 1.840000
Cu 9.200000 -9.200000 5.520000
Cu 9.200000 -9.200000 9.200000
Cu 9.200000 -9.200000 12.880000
Cu 9.200000 -5.520000 -12.880000
Cu 9.200000 -5.520000 -9.200000
Cu 9.200000 -5.520000 -5.520000
Cu 9.200000 -5.520000 -1.840000
Cu 9.200000 -5.520000 1.840000
Cu 9.200000 -5.520000 5.520000
Cu 9.200000 -5.520000 9.200000
Cu 9.200000 -5.520000 12.880000
Cu 9.200000 -1.840000 -12.880000
Cu 9.200000 -1.840000 -9.200000
Cu 9.200000 -1.840000 -5.520000
Cu 9.200000 -1.840000 -1.840000
Cu 9.200000 -1.840000 1.840000
Cu 9.200000 -1.840000 5.520000
Cu 9.200000 -1.840000 9.200000
Cu 9.200000 -1.840000 12.880000
Cu 9.200000 1.840000 -12.880000
Cu 9.200000 1.840000 -9.200000
Cu 9.200000 1.840000 -5.520000
Cu 9.200000 1.840000 -1.840000
Cu 9.200000 1.840000 1.840000
Cu 9.200000 1.840000 5.520000
Cu 9.200000 1.840000 9.200000
Cu 9.200000 1.840000 12.880000
Cu 9.200000 5.520000 -12.880000
Cu 9.200000 5.520000 -9.200000
Cu 9.200000 5.520000 -5.520000
Cu 9.200000 5.520000 -1.840000
Cu 9.200000 5.520000 1.840000
Cu 9.200000 5.520000 5.520000
Cu 9.200000 5.520000 9.200000
Cu 9.200000 5.520000 12.880000
Cu 9.200000 9.200000 -12.880000
Cu 9.200000 9.200000 -9.200000
Cu 9.200000 9.200000 -5.520000
Cu 9.200000 9.200000 -1.840000
Cu 9.200000 9.200000 1.840000
Cu 9.200000 9.200000 5.520000
Cu 9.200000 9.200000 9.200000
Cu 9.200000 9.200000 12.880000
Cu 9.200000 12.880000 -12.880000
Cu 9.200000 12.880000 -9.200000
Cu 9.200000 12.880000 -5.520000
Cu 9.200000 12.880000 -1.840000
Cu 9.200000 12.880000 1.840000
Cu 9.200000 12.880000 5.520000
Cu 9.200000 12.880000 9.200000
Cu 9.200000 12.880000 12.880000
Cu 12.880000 -12.880000 -12.880000
Cu 12.880000 -12.880000 -9.200000
Cu 12.880000 -12.880000 -5.520000
Cu 12.880000 -12.880000 -1.840000
Cu 12.880000 -12.880000 1.840000
Cu 12.880000 -12.880000 5.520000
Cu 12.880000 -12.880000 9.200000
Cu 12.880000 -12.880000 12.880000
Cu 12.880000 -9.200000 -12.880000
Cu 12.880000 -9.200000 -9.200000
Cu 12.880000 -9.200000 -5.520000
Cu 12.880000 -9.200000 -1.840000
Cu 12.880000 -9.200000 1.840000
Cu 12.880000 -9.200000 5.520000
Cu 12.880000 -9.200000 9.200000
Cu 12.880000 -9.200000 12.880000
Cu 12.880000 -5.520000 -12.880000
Cu 12.880000 -5.520000 -9.200000
Cu 12.880000 -5.520000 -5.520000
Cu 12.880000 -5.520000 -1.840000
Cu 12.880000 -5.520000 1.840000
Cu 12.880000 -5.520000 5.520000
Cu 12.880000 -5.520000 9.200000
Cu 12.880000 -5.520000 12.880000
Cu 12.880000 -1.840000 -12.880000
Cu 12.880000 -1.840000 -9.200000
Cu 12.880000 -1.840000 -5.520000
Cu 12.880000 -1.840000 -1.840000
Cu 12.880000 -1.840000 1.840000
Cu 12.880000 -1.840000 5.520000
Cu 12.880000 -1.840000 9.200000
Cu 12.880000 -1.840000 12.880000
Cu 12.880000 1.840000 -12.880000
Cu 12.880000 1.840000 -9.200000
Cu 12.880000 1.840000 -5.520000
Cu 12.880000 1.840000 -1.840000
Cu 12.880000 1.840000 1.840000
Cu 12.880000 1.840000 5.520000
Cu 12.880000 1.840000 9.200000
Cu 12.880000 1.840000 12.880000
Cu 12.880000 5.520000 -12.880000
Cu 12.880000 5.520000 -9.200000
Cu 12.880000 5.520000 -5.520000
Cu 12.880000 5.520000 -1.840000
Cu 12.880000 5.520000 1.840000
Cu 12.880000 5.520000 5.520000
Cu 12.880000 5.520000 9.200000
Cu 12.880000 5.520000 12.880000
Cu 12.880000 9.200000 -12.880000
Cu 12.880000 9.200000 -9.200000
Cu 12.880000 9.200000 -5.520000
Cu 12.880000 9.200000 -1.840000
Cu 12.880000 9.200000 1.840000
Cu 12.880000 9.200000 5.520000
Cu 12.880000 9.200000 9.200000
Cu 12.880000 9.200000 12.880000
Cu 12.880000 12.880000 -12.880000
Cu 12.880000 12.880000 -9.200000
Cu 12.880000 12.880000 -5.520000
Cu 12.880000 12.880000 -1.840000
Cu 12.880000 12.880000 1.840000
Cu 12.880000 12.880000 5.520000
Cu 12.880000 12.880000 9.200000
Cu 12.880000 12.880000 12.880000
Cu -11.040000 -11.040000 -12.880000
Cu -11.040000 -11.040000 -9.200000
Cu -11.040000 -11.040000 -5.520000
Cu -11.040000 -11.040000 -1.840000
Cu -11.040000 -11.040000 1.840000
Cu -11.040000 -11.040000 5.520000
Cu -11.040000 -11.040000 9.200000
Cu -11.040000 -11.040000 12.880000
Cu -11.040000 -7.360000 -12.880000
Cu -11.040000 -7.360000 -9.200000
Cu -11.040000 -7.360000 -5.520000
Cu -11.040000 -7.360000 -1.840000
Cu -11.040000 -7.360000 1.840000
Cu -11.040000 -7.360000 5.520000
Cu -11.040000 -7.360000 9.200000
Cu -11.040000 -7.360000 12.880000
Cu -11.040000 -3.680000 -12.880000
Cu -11.040000 -3.680000 -9.200000
Cu -11.040000 -3.680000 -5.520000
Cu -11.040000 -3.680000 -1.840000
Cu -11.040000 -3.680000 1.840000
Cu -11.040000 -3.680000 5.520000
Cu -11.040000 -3.680000 9.200000
Cu -11.040000 -3.680000 12.880000
Cu -11.040000 0.000000 -12.880000
Cu -11.040000 0.000000 -9.200000
Cu -11.040000 0.000000 -5.520000
Cu -11.040000 0.000000 -1.840000
Cu -11.040000 0.000000 1.840000
Cu -11.040000 0.000000 5.520000
Cu -11.040000 0.000000 9.200000
Cu -11.040000 0.000000 12.880000
Cu -11.040000 3.680000 -12.880000
Cu -11.040000 3.680000 -9.200000
Cu -11.040000 3.680000 -5.520000
Cu -11.040000 3.680000 -1.840000
Cu -11.040000 3.680000 1.840000
Cu -11.040000 3.680000 5.520000
Cu -11.040000 3.680000 9.200000
Cu -11.040000 3.680000 12.880000
Cu -11.040000 7.360000 -12.880000
Cu -11.040000 7.360000 -9.200000
Cu -11.040000 7.360000 -5.520000
Cu -11.040000 7.360000 -1.840000
Cu -11.040000 7.360000 1.840000
Cu -11.040000 7.360000 5.520000
Cu -11.040000 7.360000 9.200000
Cu -11.040000 7.360000 12.880000
Cu -11.040000 11.040000 -12.880000
Cu -11.040000 11.040000 -9.200000
Cu -11.040000 11.040000 -5.520000
Cu -11.040000 11.040000 -1.840000
Cu -11.040000 11.040000 1.840000
Cu -11.040000 11.040000 5.520000
Cu -11.040000 11.040000 9.200000
Cu -11.040000 11.040000 12.880000
Cu -7.360000 -11.040000 -12.880000
Cu -7.360000 -11.040000 -9.200000
Cu -7.360000 -11.040000 -5.520000
Cu -7.360000 -11.040000 -1.840000
Cu -7.360000 -11.040000 1.840000
Cu -7.360000 -11.040000 5.520000
Cu -7.360000 -11.040000 9.200000
Cu -7.360000 -11.040000 12.880000
Cu -7.360000 -7.360000 -12.880000
Cu -7.360000 -7.360000 -9.200000
Cu -7.360000 -7.360000 -5.520000
Cu -7.360000 -7.360000 -1.840000
Cu -7.360000 -7.360000 1.840000
Cu -7.360000 -7.360000 5.520000
Cu -7.360000 -7.360000 9.200000
Cu -7.360000 -7.360000 12.880000
Cu -7.360000 -3.680000 -12.880000
Cu -7.360000 -3.680000 -9.200000
Cu -7.360000 -3.680000 -5.520000
Cu -7.360000 -3.680000 -1.840000
Cu -7.360000 -3.680000 1.840000
Cu -7.360000 -3.680000 5.520000
Cu -7.360000 -3.680000 9.200000
Cu -7.360000 -3.680000 12.880000
Cu -7.360000 0.000000 -12.880000
Cu -7.360000 0.000000 -9.200000
Cu -7.360000 0.000000 -5.520000
Cu -7.360000 0.000000 -1.840000
Cu -7.360000 0.000000 1.840000
Cu -7.360000 0.000000 5.520000
Cu -7.360000 0.000000 9.200000
Cu -7.360000 0.000000 12.880000
Cu -7.360000 3.680000 -12.880000
Cu -7.360000 3.680000 -9.200000
Cu -7.360000 3.680000 -5.520000
Cu -7.360000 3.680000 -1.840000
Cu -7.360000 3.680000 1.840000
Cu -7.360000 3.680000 5.520000
Cu -7.360000 3.680000 9.200000
Cu -7.360000 3.680000 12.880000
Cu -7.360000 7.360000 -12.880000
Cu -7.360000 7.360000 -9.200000
Cu -7.360000 7.360000 -5.520000
Cu -7.360000 7.360000 -1.840000
Cu -7.360000 7.360000 1.840000
Cu -7.360000 7.360000 5.520000
Cu -7.360000 7.360000 9.200000
Cu -7.360000 7.360000 12.880000
Cu -7.360000 11.040000 -12.880000
Cu -7.360000 11.040000 -9.200000
Cu -7.360000 11.040000 -5.520000
Cu -7.360000 11.040000 -1.840000
Cu -7.360000 11.040000 1.840000
Cu -7.360000 11.040000 5.520000
Cu -7.360000 11.040000 9.200000
Cu -7.360000 11.040000 12.880000
Cu -3.680000 -11.040000 -12.880000
Cu -3.680000 -11.040000 -9.200000
Cu -3.680000 -11.040000 -5.520000
Cu -3.680000 -11.040000 -1.840000
Cu -3.680000 -11.040000 1.840000
Cu -3.680000 -11.040000 5.520000
Cu -3.680000 -11.040000 9.200000
Cu -3.680000 -11.040000 12.880000
Cu -3.680000 -7.360000 -12.880000
Cu -3.680000 -7.360000 -9.200000
Cu -3.680000 -7.360000 -5.520000
Cu -3.680000 -7.360000 -1.840000
Cu -3.680000 -7.360000 1.840000
Cu -3.680000 -7.360000 5.520000
Cu -3.680000 -7.360000 9.200000
Cu -3.680000 -7.360000 12.880000
Cu -3.680000 -3.680000 -12.880000
Cu -3.680000 -3.680000 -9.200000
Cu -3.680000 -3.680000 -5.520000
Cu -3.680000 -3.680000 -1.840000
Cu -3.680000 -3.680000 1.840000
Cu -3.680000 -3.680000 5.520000
Cu -3.680000 -3.680000 9.200000
Cu -3.680000 -3.680000 12.880000
Cu -3.680000 0.000000 -12.880000
Cu -3.680000 0.000000 -9.200000
Cu -3.680000 0.000000 -5.520000
Cu -3.680000 0.000000 -1.840000
Cu -3.680000 0.000000 1.840000
Cu -3.680000 0.000000 5.520000
Cu -3.680000 0.000000 9.200000
Cu -3.680000 0.000000 12.880000
Cu -3.680000 3.680000 -12.880000
Cu -3.680000 3.680000 -9.200000
Cu -3.680000 3.680000 -5.520000
Cu -3.680000 3.680000 -1.840000
Cu -3.680000 3.680000 1.840000
Cu -3.680000 3.680000 5.520000
Cu -3.680000 3.680000 9.200000
Cu -3.680000 3.680000 12.880000
Cu -3.680000 7.360000 -12.880000
Cu -3.680000 7.360000 -9.200000
Cu -3.680000 7.360000 -5.520000
Cu -3.680000 7.360000 -1.840000
Cu -3.680000 7.360000 1.840000
Cu -3.680000 7.360000 5.520000
Cu -3.680000 7.360000 9.200000
Cu -3.680000 7.360000 12.880000
Cu -3.680000 11.040000 -12.880000
Cu -3.680000 11.040000 -9.200000
Cu -3.680000 11.040000 -5.520000
Cu -3.680000 11.040000 -1.840000
Cu -3.680000 11.040000 1.840000
Cu -3.680000 11.040000 5.520000
Cu -3.680000 11.040000 9.200000
Cu -3.680000 11.040000 12.880000
Cu 0.000000 -11.040000 -12.880000
Cu 0.000000 -11.040000 -9.200000
Cu 0.000000 -11.040000 -5.520000
Cu 0.000000 -11.040000 -1.840000
Cu 0.000000 -11.040000 1.840000
Cu 0.000000 -11.040000 5.520000
Cu 0.000000 -11.040000 9.200000
Cu 0.000000 -11.040000 12.880000
Cu 0.000000 -7.360000 -12.880000
Cu 0.000000 -7.360000 -9.200000
Cu 0.000000 -7.360000 -5.520000
Cu 0.000000 -7.360000 -1.840000
Cu 0.000000 -7.360000 1.840000
Cu 0.000000 -7.360000 5.520000
Cu 0.000000 -7.360000 9.200000
Cu 0.000000 -7.360000 12.880000
Cu 0.000000 -3.680000 -12.880000
Cu 0.000000 -3.680000 -9.200000
Cu 0.000000 -3.680000 -5.520000
Cu 0.000000 -3.680000 -1.840000
Cu 0.000000 -3.680000 1.840000
Cu 0.000000 -3.680000 5.520000
Cu 0.000000 -3.680000 9.200000
Cu 0.000000 -3.680000 12.880000
Cu 0.000000 0.000000 -12.880000
Cu 0.000000 0.000000 -9.200000
Cu 0.000000 0.000000 -5.520000
Cu 0.000000 0.000000 -1.840000
Cu 0.000000 0.000000 1.840000
Cu 0.000000 0.000000 5.520000
Cu 0.000000 0.000000 9.200000
Cu 0.000000 0.000000 12.880000
Cu 0.000000 3.680000 -12.880000
Cu 0.000000 3.680000 -9.200000
Cu 0.000000 3.680000 -5.520000
Cu 0.000000 3.680000 -1.840000
Cu 0.000000 3.680000 1.840000
Cu 0.000000 3.680000 5.520000
Cu 0.000000 3.680000 9.200000
Cu 0.000000 3.680000 12.880000
Cu 0.000000 7.360000 -12.880000
Cu 0.000000 7.360000 -9.200000
Cu 0.000000 7.360000 -5.520000
Cu 0.000000 7.360000 -1.840000
Cu 0.000000 7.360000 1.840000
Cu 0.000000 7.360000 5.520000
Cu 0.000000 7.360000 9.200000
Cu 0.000000 7.360000 12.880000
Cu 0.000000 11.040000 -12.880000
Cu 0.000000 11.040000 -9.200000
Cu 0.000000 11.040000 -5.520000
Cu 0.000000 11.040000 -1.840000
Cu 0.000000 11.040000 1.840000
Cu 0.000000 11.040000 5.520000
Cu 0.000000 11.040000 9.200000
Cu 0.000000 11.040000 12.880000
Cu 3.680000 -11.040000 -12.880000
Cu 3.680000 -11.040000 -9.200000
Cu 3.680000 -11.040000 -5.520000
Cu 3.680000 -11.040000 -1.840000
Cu 3.680000 -11.040000 1.840000
Cu 3.680000 -11.040000 5.520000
Cu 3.680000 -11.040000 9.200000
Cu 3.680000 -11.040000 12.880000
Cu 3.680000 -7.360000 -12.880000
Cu 3.680000 -7.360000 -9.200000
Cu 3.680000 -7.360000 -5.520000
Cu 3.680000 -7.360000 -1.840000
Cu 3.680000 -7.360000 1.840000
Cu 3.680000 -7.360000 5.520000
Cu 3.680000 -7.360000 9.200000
Cu 3.680000 -7.360000 12.880000
Cu 3.680000 -3.680000 -12.880000
Cu 3.680000 -3.680000 -9.200000
Cu 3.680000 -3.680000 -5.520000
Cu 3.680000 -3.680000 -1.840000
Cu 3.680000 -3.680000 1.840000
Cu 3.680000 -3.680000 5.520000
Cu 3.680000 -3.680000 9.200000
Cu 3.680000 -3.680000 12.880000
Cu 3.680000 0.000000 -12.880000
Cu 3.680000 0.000000 -9.200000
Cu 3.680000 0.000000 -5.520000
Cu 3.680000 0.000000 -1.840000
Cu 3.680000 0.000000 1.840000
Cu 3.680000 0.000000 5.520000
Cu 3.680000 0.000000 9.200000
Cu 3.680000 0.000000 12.880000
Cu 3.680000 3.680000 -12.880000
Cu 3.680000 3.680000 -9.200000
Cu 3.680000 3.680000 -5.520000
Cu 3.680000 3.680000 -1.840000
Cu 3.680000 3.680000 1.840000
Cu 3.680000 3.680000 5.520000
Cu 3.680000 3.680000 9.200000
Cu 3.680000 3.680000 12.880000
Cu 3.680000 7.360000 -12.880000
Cu 3.680000 7.360000 -9.200000
Cu 3.680000 7.360000 -5.520000
Cu 3.680000 7.360000 -1.840000
Cu 3.680000 7.360000 1.840000
Cu 3.680000 7.360000 5.520000
Cu 3.680000 7.360000 9.200000
Cu 3.680000 7.360000 12.880000
Cu 3.680000 11.040000 -12.880000
Cu 3.680000 11.040000 -9.200000
Cu 3.680000 11.040000 -5.520000
Cu 3.680000 11.040000 -1.840000
Cu 3.680000 11.040000 1.840000
Cu 3.680000 11.040000 5.520000
Cu 3.680000 11.040000 9.200000
Cu 3.680000 11.040000 12.880000
Cu 7.360000 -11.040000 -12.880000
Cu 7.360000 -11.040000 -9.200000
Cu 7.360000 -11.040000 -5.520000
Cu 7.360000 -11.040000 -1.840000
Cu 7.360000 -11.040000 1.840000
Cu 7.360000 -11.040000 5.520000
Cu 7.360000 -11.040000 9.200000
Cu 7.360000 -11.040000 12.880000
Cu 7.360000 -7.360000 -12.880000
Cu 7.360000 -7.360000 -9.200000
Cu 7.360000 -7.360000 -5.520000
Cu 7.360000 -7.360000 -1.840000
Cu 7.360000 -7.360000 1.840000
Cu 7.360000 -7.360000 5.520000
Cu 7.360000 -7.360000 9.200000
Cu 7.360000 -7.360000 12.880000
Cu 7.360000 -3.680000 -12.880000
Cu 7.360000 -3.680000 -9.200000
Cu 7.360000 -3.680000 -5.520000
Cu 7.360000 -3.680000 -1.840000
Cu 7.360000 -3.680000 1.840000
Cu 7.360000 -3.680000 5.520000
Cu 7.360000 -3.680000 9.200000
Cu 7.360000 -3.680000 12.880000
Cu 7.360000 0.000000 -12.880000
Cu 7.360000 0.000000 -9.200000
Cu 7.360000 0.000000 -5.520000
Cu 7.360000 0.000000 -1.840000
Cu 7.360000 0.000000 1.840000
Cu 7.360000 0.000000 5.520000
Cu 7.360000 0.000000 9.200000
Cu 7.360000 0.000000 12.880000
Cu 7.360000 3.680000 -12.880000
Cu 7.360000 3.680000 -9.200000
Cu 7.360000 3.680000 -5.520000
Cu 7.360000 3.680000 -1.840000
Cu 7.360000 3.680000 1.840000
Cu 7.360000 3.680000 5.520000
Cu 7.360000 3.680000 9.200000
Cu 7.360000 3.680000 12.880000
Cu 7.360000 7.360000 -12.880000
Cu 7.360000 7.360000 -9.200000
Cu 7.360000 7.360000 -5.520000
Cu 7.360000 7.360000 -1.840000
Cu 7.360000 7.360000 1.840000
Cu 7.360000 7.360000 5.520000
Cu 7.360000 7.360000 9.200000
Cu 7.360000 7.360000 12.880000
Cu 7.360000 11.040000 -12.880000
Cu 7.360000 11.040000 -9.200000
Cu 7.360000 11.040000 -5.520000
Cu 7.360000 11.040000 -1.840000
Cu 7.360000 11.040000 1.840000
Cu 7.360000 11.040000 5.520000
Cu 7.360000 11.040000 9.200000
Cu 7.360000 11.040000 12.880000
Cu 11.040000 -11.040000 -12.880000
Cu 11.040000 -11.040000 -9.200000
Cu 11.040000 -11.040000 -5.520000
Cu 11.040000 -11.040000 -1.840000
Cu 11.040000 -11.040000 1.840000
Cu 11.040000 -11.040000 5.520000
Cu 11.040000 -11.040000 9.200000
Cu 11.040000 -11.040000 12.880000
Cu 11.040000 -7.360000 -12.880000
Cu 11.040000 -7.360000 -9.200000
Cu 11.040000 -7.360000 -5.520000
Cu 11.040000 -7.360000 -1.840000
Cu 11.040000 -7.360000 1.840000
Cu 11.040000 -7.360000 5.520000
Cu 11.040000 -7.360000 9.200000
Cu 11.040000 -7.360000 12.880000
Cu 11.040000 -3.680000 -12.880000
Cu 11.040000 -3.680000 -9.200000
Cu 11.040000 -3.680000 -5.520000
Cu 11.040000 -3.680000 -1.840000
Cu 11.040000 -3.680000 1.840000
Cu 11.040000 -3.680000 5.520000
Cu 11.040000 -3.680000 9.200000
Cu 11.040000 -3.680000 12.880000
Cu 11.040000 0.000000 -12.880000
Cu 11.040000 0.000000 -9.200000
Cu 11.040000 0.000000 -5.520000
Cu 11.040000 0.000000 -1.840000
Cu 11.040000 0.000000 1.840000
Cu 11.040000 0.000000 5.520000
Cu 11.040000 0.000000 9.200000
Cu 11.040000 0.000000 12.880000
Cu 11.040000 3.680000 -12.880000
Cu 11.040000 3.680000 -9.200000
Cu 11.040000 3.680000 -5.520000
Cu 11.040000 3.680000 -1.840000
Cu 11.040000 3.680000 1.840000
Cu 11.040000 3.680000 5.520000
Cu 11.040000 3.680000 9.200000
Cu 11.040000 3.680000 12.880000
Cu 11.040000 7.360000 -12.880000
Cu 11.040000 7.360000 -9.200000
Cu 11.040000 7.360000 -5.520000
Cu 11.040000 7.360000 -1.840000
Cu 11.040000 7.360000 1.840000
Cu 11.040000 7.360000 5.520000
Cu 11.040000 7.360000 9.200000
Cu 11.040000 7.360000 12.880000
Cu 11.040000 11.040000 -12.880000
Cu 11.040000 11.040000 -9.200000
Cu 11.040000 11.040000 -5.520000
Cu 11.040000 11.040000 -1.840000
Cu 11.040000 11.040000 1.840000
Cu 11.040000 11.040000 5.520000
Cu 11.040000 11.040000 9.200000
Cu 11.040000 11.040000 12.880000
Cu -12.880000 -11.040000 -11.040000
Cu -12.880000 -11.040000 -7.360000
Cu -12.880000 -11.040000 -3.680000
Cu -12.880000 -11.040000 0.000000
Cu -12.880000 -11.040000 3.680000
Cu -12.880000 -11.040000 7.360000
Cu -12.880000 -11.040000 11.040000
Cu -12.880000 -7.360000 -11.040000
Cu -12.880000 -7.360000 -7.360000
Cu -12.880000 -7.360000 -3.680000
Cu -12.880000 -7.360000 0.000000
Cu -12.880000 -7.360000 3.680000
Cu -12.880000 -7.360000 7.360000
Cu -12.880000 -7.360000 11.040000
Cu -12.880000 -3.680000 -11.040000
Cu -12.880000 -3.680000 -7.360000
Cu -12.880000 -3.680000 -3.680000
Cu -12.880000 -3.680000 0.000000
Cu -12.880000 -3.680000 3.680000
Cu -12.880000 -3.680000 7.360000
Cu -12.880000 -3.680000 11.040000
Cu -12.880000 0.000000 -11.040000
Cu -12.880000 0.000000 -7.360000
Cu -12.880000 0.000000 -3.680000
Cu -12.880000 0.000000 0.000000
Cu -12.880000 0.000000 3.680000
Cu -12.880000 0.000000 7.360000
Cu -12.880000 0.000000 11.040000
Cu -12.880000 3.680000 -11.040000
Cu -12.880000 3.680000 -7.360000
Cu -12.880000 3.680000 -3.680000
Cu -12.880000 3.680000 0.000000
Cu -12.880000 3.680000 3.680000
Cu -12.880000 3.680000 7.360000
Cu -12.880000 3.680000 11.040000
Cu -12.880000 7.360000 -11.040000
Cu -12.880000 7.360000 -7.360000
Cu -12.880000 7.360000 -3.680000
Cu -12.880000 7.360000 0.000000
Cu -12.880000 7.360000 3.680000
Cu -12.880000 7.360000 7.360000
Cu -12.880000 7.360000 11.040000
Cu -12.880000 11.040000 -11.040000
Cu -12.880000 11.040000 -7.360000
Cu -12.880000 11.040000 -3.680000
Cu -12.880000 11.040000 0.000000
Cu -12.880000 11.040000 3.680000
Cu -12.880000 11.040000 7.360000
Cu -12.880000 11.040000 11.040000
Cu -9.200000 -11.040000 -11.040000
Cu -9.200000 -11.040000 -7.360000
Cu -9.200000 -11.040000 -3.680000
Cu -9.200000 -11.040000 0.000000
Cu -9.200000 -11.040000 3.680000
Cu -9.200000 -11.040000 7.360000
Cu -9.200000 -11.040000 11.040000
Cu -9.200000 -7.360000 -11.040000
Cu -9.200000 -7.360000 -7.360000
Cu -9.200000 -7.360000 -3.680000
Cu -9.200000 -7.360000 0.000000
Cu -9.200000 -7.360000 3.680000
Cu -9.200000 -7.360000 7.360000
Cu -9.200000 -7.360000 11.040000
Cu -9.200000 -3.680000 -11.040000
Cu -9.200000 -3.680000 -7.360000
Cu -9.200000 -3.680000 -3.680000
Cu -9.200000 -3.680000 0.000000
Cu -9.200000 -3.680000 3.680000
Cu -9.200000 -3.680000 7.360000
Cu -9.200000 -3.680000 11.040000
Cu -9.200000 0.000000 -11.040000
Cu -9.200000 0.000000 -7.360000
Cu -9.200000 0.000000 -3.680000
Cu -9.200000 0.000000 0.000000
Cu -9.200000 0.000000 3.680000
Cu -9.200000 0.000000 7.360000
Cu -9.200000 0.000000 11.040000
Cu -9.200000 3.680000 -11.040000
Cu -9.200000 3.680000 -7.360000
Cu -9.200000 3.680000 -3.680000
Cu -9.200000 3.680000 0.000000
Cu -9.200000 3.680000 3.680000
Cu -9.200000 3.680000 7.360000
Cu -9.200000 3.680000 11.040000
Cu -9.200000 7.360000 -11.040000
Cu -9.200000 7.360000 -7.360000
Cu -9.200000 7.360000 -3.680000
Cu -9.200000 7.360000 0.000000
Cu -9.200000 7.360000 3.680000
Cu -9.200000 7.360000 7.360000
Cu -9.200000 7.360000 11.040000
Cu -9.200000 11.040000 -11.040000
Cu -9.200000 11.040000 -7.360000
Cu -9.200000 11.040000 -3.680000
Cu -9.200000 11.040000 0.000000
Cu -9.200000 11.040000 3.680000
Cu -9.200000 11.040000 7.360000
Cu -9.200000 11.040000 11.040000
Cu -5.520000 -11.040000 -11.040000
Cu -5.520000 -11.040000 -7.360000
Cu -5.520000 -11.040000 -3.680000
Cu -5.520000 -11.040000 0.000000
Cu -5.520000 -11.040000 3.680000
Cu -5.520000 -11.040000 7.360000
Cu -5.520000 -11.040000 11.040000
Cu -5.520000 -7.360000 -11.040000
Cu -5.520000 -7.360000 -7.360000
Cu -5.520000 -7.360000 -3.680000
Cu -5.520000 -7.360000 0.000000
Cu -5.520000 -7.360000 3.680000
Cu -5.520000 -7.360000 7.360000
Cu -5.520000 -7.360000 11.040000
Cu -5.520000 -3.680000 -11.040000
Cu -5.520000 -3.680000 -7.360000
Cu -5.520000 -3.680000 -3.680000
Cu -5.520000 -3.680000 0.000000
Cu -5.520000 -3.680000 3.680000
Cu -5.520000 -3.680000 7.360000
Cu -5.520000 -3.680000 11.040000
Cu -5.520000 0.000000 -11.040000
Cu -5.520000 0.000000 -7.360000
Cu -5.520000 0.000000 -3.680000
Cu -5.520000 0.000000 0.000000
Cu -5.520000 0.000000 3.680000
Cu -5.520000 0.000000 7.360000
Cu -5.520000 0.000000 11.040000
Cu -5.520000 3.680000 -11.040000
Cu -5.520000 3.680000 -7.360000
Cu -5.520000 3.680000 -3.680000
Cu -5.520000 3.680000 0.000000
Cu -5.520000 3.680000 3.680000
Cu -5.520000 3.680000 7.360000
Cu -5.520000 3.680000 11.040000
Cu -5.520000 7.360000 -11.040000
Cu -5.520000 7.360000 -7.360000
Cu -5.520000 7.360000 -3.680000
Cu -5.520000 7.360000 0.000000
Cu -5.520000 7.360000 3.680000
Cu -5.520000 7.360000 7.360000
Cu -5.520000 7.360000 11.040000
Cu -5.520000 11.040000 -11.040000
Cu -5.520000 11.040000 -7.360000
Cu -5.520000 11.040000 -3.680000
Cu -5.520000 11.040000 0.000000
Cu -5.520000 11.040000 3.680000
Cu -5.520000 11.040000 7.360000
Cu -5.520000 11.040000 11.040000
Cu -1.840000 -11.040000 -11.040000
Cu -1.840000 -11.040000 -7.360000
Cu -1.840000 -11.040000 -3.680000
Cu -1.840000 -11.040000 0.000000
Cu -1.840000 -11.040000 3.680000
Cu -1.840000 -11.040000 7.360000
Cu -1.840000 -11.040000 11.040000
Cu -1.840000 -7.360000 -11.040000
Cu -1.840000 -7.360000 -7.360000
Cu -1.840000 -7.360000 -3.680000
Cu -1.840000 -7.360000 0.000000
Cu -1.840000 -7.360000 3.680000
Cu -1.840000 -7.360000 7.360000
Cu -1.840000 -7.360000 11.040000
Cu -1.840000 -3.680000 -11.040000
Cu -1.840000 -3.680000 -7.360000
Cu -1.840000 -3.680000 -3.680000
Cu -1.840000 -3.680000 0.000000
Cu -1.840000 -3.680000 3.680000
Cu -1.840000 -3.680000 7.360000
Cu -1.840000 -3.680000 11.040000
Cu -1.840000 0.000000 -11.040000
Cu -1.840000 0.000000 -7.360000
Cu -1.840000 0.000000 -3.680000
Cu -1.840000 0.000000 0.000000
Cu -1.840000 0.000000 3.680000
Cu -1.840000 0.000000 7.360000
Cu -1.840000 0.000000 11.040000
Cu -1.840000 3.680000 -11.040000
Cu -1.840000 3.680000 -7.360000
Cu -1.840000 3.680000 -3.680000
Cu -1.840000 3.680000 0.000000
Cu -1.840000 3.680000 3.680000
Cu -1.840000 3.680000 7.360000
Cu -1.840000 3.680000 11.040000
Cu -1.840000 7.360000 -11.040000
Cu -1.840000 7.360000 -7.360000
Cu -1.840000 7.360000 -3.680000
Cu -1.840000 7.360000 0.000000
Cu -1.840000 7.360000 3.680000
Cu -1.840000 7.360000 7.360000
Cu -1.840000 7.360000 11.040000
Cu -1.840000 11.040000 -11.040000
Cu -1.840000 11.040000 -7.360000
Cu -1.840000 11.040000 -3.680000
Cu -1.840000 11.040000 0.000000
Cu -1.840000 11.040000 3.680000
Cu -1.840000 11.040000 7.360000
Cu -1.840000 11.040000 11.040000
Cu 1.840000 -11.040000 -11.040000
Cu 1.840000 -11.040000 -7.360000
Cu 1.840000 -11.040000 -3.680000
Cu 1.840000 -11.040000 0.000000
Cu 1.840000 -11.040000 3.680000
Cu 1.840000 -11.040000 7.360000
Cu 1.840000 -11.040000 11.040000
Cu 1.840000 -7.360000 -11.040000
Cu 1.840000 -7.360000 -7.360000
Cu 1.840000 -7.360000 -3.680000
Cu 1.840000 -7.360000 0.000000
Cu 1.840000 -7.360000 3.680000
Cu 1.840000 -7.360000 7.360000
Cu 1.840000 -7.360000 11.040000
Cu 1.840000 -3.680000 -11.040000
Cu 1.840000 -3.680000 -7.360000
Cu 1.840000 -3.680000 -3.680000
Cu 1.840000 -3.680000 0.000000
Cu 1.840000 -3.680000 3.680000
Cu 1.840000 -3.680000 7.360000
Cu 1.840000 -3.680000 11.040000
Cu 1.840000 0.000000 -11.040000
Cu 1.840000 0.000000 -7.360000
Cu 1.840000 0.000000 -3.680000
Cu 1.840000 0.000000 0.000000
Cu 1.840000 0.000000 3.680000
Cu 1.840000 0.000000 7.360000
Cu 1.840000 0.000000 11.040000
Cu 1.840000 3.680000 -11.040000
Cu 1.840000 3.680000 -7.360000
Cu 1.840000 3.680000 -3.680000
Cu 1.840000 3.680000 0.000000
Cu 1.840000 3.680000 3.680000
Cu 1.840000 3.680000 7.360000
Cu 1.840000 3.680000 11.040000
Cu 1.840000 7.360000 -11.040000
Cu 1.840000 7.360000 -7.360000
Cu 1.840000 7.360000 -3.680000
Cu 1.840000 7.360000 0.000000
Cu 1.840000 7.360000 3.680000
Cu 1.840000 7.360000 7.360000
Cu 1.840000 7.360000 11.040000
Cu 1.840000 11.040000 -11.040000
Cu 1.840000 11.040000 -7.360000
Cu 1.840000 11.040000 -3.680000
Cu 1.840000 11.040000 0.000000
Cu 1.840000 11.040000 3.680000
Cu 1.840000 11.040000 7.360000
Cu 1.840000 11.040000 11.040000
Cu 5.520000 -11.040000 -11.040000
Cu 5.520000 -11.040000 -7.360000
Cu 5.520000 -11.040000 -3.680000
Cu 5.520000 -11.040000 0.000000
Cu 5.520000 -11.040000 3.680000
Cu 5.520000 -11.040000 7.360000
Cu 5.520000 -11.040000 11.040000
Cu 5.520000 -7.360000 -11.040000
Cu 5.520000 -7.360000 -7.360000
Cu 5.520000 -7.360000 -3.680000
Cu 5.520000 -7.360000 0.000000
Cu 5.520000 -7.360000 3.680000
Cu 5.520000 -7.360000 7.360000
Cu 5.520000 -7.360000 11.040000
Cu 5.520000 -3.680000 -11.040000
Cu 5.520000 -3.680000 -7.360000
Cu 5.520000 -3.680000 -3.680000
Cu 5.520000 -3.680000 0.000000
Cu 5.520000 -3.680000 3.680000
Cu 5.520000 -3.680000 7.360000
Cu 5.520000 -3.680000 11.040000
Cu 5.520000 0.000000 -11.040000
Cu 5.520000 0.000000 -7.360000
Cu 5.520000 0.000000 -3.680000
Cu 5.520000 0.000000 0.000000
Cu 5.520000 0.000000 3.680000
Cu 5.520000 0.000000 7.360000
Cu 5.520000 0.000000 11.040000
Cu 5.520000 3.680000 -11.040000
Cu 5.520000 3.680000 -7.360000
Cu 5.520000 3.680000 -3.680000
Cu 5.520000 3.680000 0.000000
Cu 5.520000 3.680000 3.680000
Cu 5.520000 3.680000 7.360000
Cu 5.520000 3.680000 11.040000
Cu 5.520000 7.360000 -11.040000
Cu 5.520000 7.360000 -7.360000
Cu 5.520000 7.360000 -3.680000
Cu 5.520000 7.360000 0.000000
Cu 5.520000 7.360000 3.680000
Cu 5.520000 7.360000 7.360000
Cu 5.520000 7.360000 11.040000
Cu 5.520000 11.040000 -11.040000
Cu 5.520000 11.040000 -7.360000
Cu 5.520000 11.040000 -3.680000
Cu 5.520000 11.040000 0.000000
Cu 5.520000 11.040000 3.680000
Cu 5.520000 11.040000 7.360000
Cu 5.520000 11.040000 11.040000
Cu 9.200000 -11.040000 -11.040000
Cu 9.200000 -11.040000 -7.360000
Cu 9.200000 -11.040000 -3.680000
Cu 9.200000 -11.040000 0.000000
Cu 9.200000 -11.040000 3.680000
Cu 9.200000 -11.040000 7.360000
Cu 9.200000 -11.040000 11.040000
Cu 9.200000 -7.360000 -11.040000
Cu 9.200000 -7.360000 -7.360000
Cu 9.200000 -7.360000 -3.680000
Cu 9.200000 -7.360000 0.000000
Cu 9.200000 -7.360000 3.680000
Cu 9.200000 -7.360000 7.360000
Cu 9.200000 -7.360000 11.040000
Cu 9.200000 -3.680000 -11.040000
Cu 9.200000 -3.680000 -7.360000
Cu 9.200000 -3.680000 -3.680000
Cu 9.200000 -3.680000 0.000000
Cu 9.200000 -3.680000 3.680000
Cu 9.200000 -3.680000 7.360000
Cu 9.200000 -3.680000 11.040000
Cu 9.200000 0.000000 -11.040000
Cu 9.200000 0.000000 -7.360000
Cu 9.200000 0.000000 -3.680000
Cu 9.200000 0.000000 0.000000
Cu 9.200000 0.000000 3.680000
Cu 9.200000 0.000000 7.360000
Cu 9.200000 0.000000 11.040000
Cu 9.200000 3.680000 -11.040000
Cu 9.200000 3.680000 -7.360000
Cu 9.200000 3.680000 -3.680000
Cu 9.200000 3.680000 0.000000
Cu 9.200000 3.680000 3.680000
Cu 9.200000 3.680000 7.360000
Cu 9.200000 3.680000 11.040000
Cu 9.200000 7.360000 -11.040000
Cu 9.200000 7.360000 -7.360000
Cu 9.200000 7.360000 -3.680000
Cu 9.200000 7.360000 0.000000
Cu 9.200000 7.360000 3.680000
Cu 9.200000 7.360000 7.360000
Cu 9.200000 7.360000 11.040000
Cu 9.200000 11.040000 -11.040000
Cu 9.200000 11.040000 -7.360000
Cu 9.200000 11.040000 -3.680000
Cu 9.200000 11.040000 0.000000
Cu 9.200000 11.040000 3.680000
Cu 9.200000 11.040000 7.360000
Cu 9.200000 11.040000 11.040000
Cu 12.880000 -11.040000 -11.040000
Cu 12.880000 -11.040000 -7.360000
Cu 12.880000 -11.040000 -3.680000
Cu 12.880000 -11.040000 0.000000
Cu 12.880000 -11.040000 3.680000
Cu 12.880000 -11.040000 7.360000
Cu 12.880000 -11.040000 11.040000
Cu 12.880000 -7.360000 -11.040000
Cu 12.880000 -7.360000 -7.360000
Cu 12.880000 -7.360000 -3.680000
Cu 12.880000 -7.360000 0.000000
Cu 12.880000 -7.360000 3.680000
Cu 12.880000 -7.360000 7.360000
Cu 12.880000 -7.360000 11.040000
Cu 12.880000 -3.680000 -11.040000
Cu 12.880000 -3.680000 -7.360000
Cu 12.880000 -3.680000 -3.680000
Cu 12.880000 -3.680000 0.000000
Cu 12.880000 -3.680000 3.680000
Cu 12.880000 -3.680000 7.360000
Cu 12.880000 -3.680000 11.040000
Cu 12.880000 0.000000 -11.040000
Cu 12.880000 0.000000 -7.360000
Cu 12.880000 0.000000 -3.680000
Cu 12.880000 0.000000 0.000000
Cu 12.880000 0.000000 3.680000
Cu 12.880000 0.000000 7.360000
Cu 12.880000 0.000000 11.040000
Cu 12.880000 3.680000 -11.040000
Cu 12.880000 3.680000 -7.360000
Cu 12.880000 3.680000 -3.680000
Cu 12.880000 3.680000 0.000000
Cu 12.880000 3.680000 3.680000
Cu 12.880000 3.680000 7.360000
Cu 12.880000 3.680000 11.040000
Cu 12.880000 7.360000 -11.040000
Cu 12.880000 7.360000 -7.360000
Cu 12.880000 7.360000 -3.680000
Cu 12.880000 7.360000 0.000000
Cu 12.880000 7.360000 3.680000
Cu 12.880000 7.360000 7.360000
Cu 12.880000 7.360000 11.040000
Cu 12.880000 11.040000 -11.040000
Cu 12.880000 11.040000 -7.360000
Cu 12.880000 11.040000 -3.680000
Cu 12.880000 11.040000 0.000000
Cu 12.880000 11.040000 3.680000
Cu 12.880000 11.040000 7.360000
Cu 12.880000 11.040000 11.040000
Cu -11.040000 -12.880000 -11.040000
Cu -11.040000 -12.880000 -7.360000
Cu -11.040000 -12.880000 -3.680000
Cu -11.040000 -12.880000 0.000000
Cu -11.040000 -12.880000 3.680000
Cu -11.040000 -12.880000 7.360000
Cu -11.040000 -12.880000 11.040000
Cu -11.040000 -9.200000 -11.040000
Cu -11.040000 -9.200000 -7.360000
Cu -11.040000 -9.200000 -3.680000
Cu -11.040000 -9.200000 0.000000
Cu -11.040000 -9.200000 3.680000
Cu -11.040000 -9.200000 7.360000
Cu -11.040000 -9.200000 11.040000
Cu -11.040000 -5.520000 -11.040000
Cu -11.040000 -5.520000 -7.360000
Cu -11.040000 -5.520000 -3.680000
Cu -11.040000 -5.520000 0.000000
Cu -11.040000 -5.520000 3.680000
Cu -11.040000 -5.520000 7.360000
Cu -11.040000 -5.520000 11.040000
Cu -11.040000 -1.840000 -11.040000
Cu -11.040000 -1.840000 -7.360000
Cu -11.040000 -1.840000 -3.680000
Cu -11.040000 -1.840000 0.000000
Cu -11.040000 -1.840000 3.680000
Cu -11.040000 -1.840000 7.360000
Cu -11.040000 -1.840000 11.040000
Cu -11.040000 1.840000 -11.040000
Cu -11.040000 1.840000 -7.360000
Cu -11.040000 1.840000 -3.680000
Cu -11.040000 1.840000 0.000000
Cu -11.040000 1.840000 3.680000
Cu -11.040000 1.840000 7.360000
Cu -11.040000 1.840000 11.040000
Cu -11.040000 5.520000 -11.040000
Cu -11.040000 5.520000 -7.360000
Cu -11.040000 5.520000 -3.680000
Cu -11.040000 5.520000 0.000000
Cu -11.040000 5.520000 3.680000
Cu -11.040000 5.520000 7.360000
Cu -11.040000 5.520000 11.040000
Cu -11.040000 9.200000 -11.040000
Cu -11.040000 9.200000 -7.360000
Cu -11.040000 9.200000 -3.680000
Cu -11.040000 9.200000 0.000000
Cu -11.040000 9.200000 3.680000
Cu -11.040000 9.200000 7.360000
Cu -11.040000 9.200000 11.040000
Cu -11.040000 12.880000 -11.040000
Cu -11.040000 12.880000 -7.360000
Cu -11.040000 12.880000 -3.680000
Cu -11.040000 12.880000 0.000000
Cu -11.040000 12.880000 3.680000
Cu -11.040000 12.880000 7.360000
Cu -11.040000 12.880000 11.040000
Cu -7.360000 -12.880000 -11.040000
Cu -7.360000 -12.880000 -7.360000
Cu -7.360000 -12.880000 -3.680000
Cu -7.360000 -12.880000 0.000000
Cu -7.360000 -12.880000 3.680000
Cu -7.360000 -12.880000 7.360000
Cu -7.360000 -12.880000 11.040000
Cu -7.360000 -9.200000 -11.040000
Cu -7.360000 -9.200000 -7.360000
Cu -7.360000 -9.200000 -3.680000
Cu -7.360000 -9.200000 0.000000
Cu -7.360000 -9.200000 3.680000
Cu -7.360000 -9.200000 7.360000
Cu -7.360000 -9.200000 11.040000
Cu -7.360000 -5.520000 -11.040000
Cu -7.360000 -5.520000 -7.360000
Cu -7.360000 -5.520000 -3.680000
Cu -7.360000 -5.520000 0.000000
Cu -7.360000 -5.520000 3.680000
Cu -7.360000 -5.520000 7.360000
Cu -7.360000 -5.520000 11.040000
Cu -7.360000 -1.840000 -11.040000
Cu -7.360000 -1.840000 -7.360000
Cu -7.360000 -1.840000 -3.680000
Cu -7.360000 -1.840000 0.000000
Cu -7.360000 -1.840000 3.680000
Cu -7.360000 -1.840000 7.360000
Cu -7.360000 -1.840000 11.040000
Cu -7.360000 1.840000 -11.040000
Cu -7.360000 1.840000 -7.360000
Cu -7.360000 1.840000 -3.680000
Cu -7.360000 1.840000 0.000000
Cu -7.360000 1.840000 3.680000
Cu -7.360000 1.840000 7.360000
Cu -7.360000 1.840000 11.040000
Cu -7.360000 5.520000 -11.040000
Cu -7.360000 5.520000 -7.360000
Cu -7.360000 5.520000 -3.680000
Cu -7.360000 5.520000 0.000000
Cu -7.360000 5.520000 3.680000
Cu -7.360000 5.520000 7.360000
Cu -7.360000 5.520000 11.040000
Cu -7.360000 9.200000 -11.040000
Cu -7.360000 9.200000 -7.360000
Cu -7.360000 9.200000 -3.680000
Cu -7.360000 9.200000 0.000000
Cu -7.360000 9.200000 3.680000
Cu -7.360000 9.200000 7.360000
Cu -7.360000 9.200000 11.040000
Cu -7.360000 12.880000 -11.040000
Cu -7.360000 12.880000 -7.360000
Cu -7.360000 12.880000 -3.680000
Cu -7.360000 12.880000 0.000000
Cu -7.360000 12.880000 3.680000
Cu -7.360000 12.880000 7.360000
Cu -7.360000 12.880000 11.040000
Cu -3.680000 -12.880000 -11.040000
Cu -3.680000 -12.880000 -7.360000
Cu -3.680000 -12.880000 -3.680000
Cu -3.680000 -12.880000 0.000000
Cu -3.680000 -12.880000 3.680000
Cu -3.680000 -12.880000 7.360000
Cu -3.680000 -12.880000 11.040000
Cu -3.680000 -9.200000 -11.040000
Cu -3.680000 -9.200000 -7.360000
Cu -3.680000 -9.200000 -3.680000
Cu -3.680000 -9.200000 0.000000
Cu -3.680000 -9.200000 3.680000
Cu -3.680000 -9.200000 7.360000
Cu -3.680000 -9.200000 11.040000
Cu -3.680000 -5.520000 -11.040000
Cu -3.680000 -5.520000 -7.360000
Cu -3.680000 -5.520000 -3.680000
Cu -3.680000 -5.520000 0.000000
Cu -3.680000 -5.520000 3.680000
Cu -3.680000 -5.520000 7.360000
Cu -3.680000 -5.520000 11.040000
Cu -3.680000 -1.840000 -11.040000
Cu -3.680000 -1.840000 -7.360000
Cu -3.680000 -1.840000 -3.680000
Cu -3.680000 -1.840000 0.000000
Cu -3.680000 -1.840000 3.680000
Cu -3.680000 -1.840000 7.360000
Cu -3.680000 -1.840000 11.040000
Cu -3.680000 1.840000 -11.040000
Cu -3.680000 1.840000 -7.360000
Cu -3.680000 1.840000 -3.680000
Cu -3.680000 1.840000 0.000000
Cu -3.680000 1.840000 3.680000
Cu -3.680000 1.840000 7.360000
Cu -3.680000 1.840000 11.040000
Cu -3.680000 5.520000 -11.040000
Cu -3.680000 5.520000 -7.360000
Cu -3.680000 5.520000 -3.680000
Cu -3.680000 5.520000 0.000000
Cu -3.680000 5.520000 3.680000
Cu -3.680000 5.520000 7.360000
Cu -3.680000 5.520000 11.040000
Cu -3.680000 9.200000 -11.040000
Cu -3.680000 9.200000 -7.360000
Cu -3.680000 9.200000 -3.680000
Cu -3.680000 9.200000 0.000000
Cu -3.680000 9.200000 3.680000
Cu -3.680000 9.200000 7.360000
Cu -3.680000 9.200000 11.040000
Cu -3.680000 12.880000 -11.040000
Cu -3.680000 12.880000 -7.360000
Cu -3.680000 12.880000 -3.680000
Cu -3.680000 12.880000 0.000000
Cu -3.680000 12.880000 3.680000
Cu -3.680000 12.880000 7.360000
Cu -3.680000 12.880000 11.040000
Cu 0.000000 -12.880000 -11.040000
Cu 0.000000 -12.880000 -7.360000
Cu 0.000000 -12.880000 -3.680000
Cu 0.000000 -12.880000 0.000000
Cu 0.000000 -12.880000 3.680000
Cu 0.000000 -12.880000 7.360000
Cu 0.000000 -12.880000 11.040000
Cu 0.000000 -9.200000 -11.040000
Cu 0.000000 -9.200000 -7.360000
Cu 0.000000 -9.200000 -3.680000
Cu 0.000000 -9.200000 0.000000
Cu 0.000000 -9.200000 3.680000
Cu 0.000000 -9.200000 7.360000
Cu 0.000000 -9.200000 11.040000
Cu 0.000000 -5.520000 -11.040000
Cu 0.000000 -5.520000 -7.360000
Cu 0.000000 -5.520000 -3.680000
Cu 0.000000 -5.520000 0.000000
Cu 0.000000 -5.520000 3.680000
Cu 0.000000 -5.520000 7.360000
Cu 0.000000 -5.520000 11.040000
Cu 0.000000 -1.840000 -11.040000
Cu 0.000000 -1.840000 -7.360000
Cu 0.000000 -1.840000 -3.680000
Cu 0.000000 -1.840000 0.000000
Cu 0.000000 -1.840000 3.680000
Cu 0.000000 -1.840000 7.360000
Cu 0.000000 -1.840000 11.040000
Cu 0.000000 1.840000 -11.040000
Cu 0.000000 1.840000 -7.360000
Cu 0.000000 1.840000 -3.680000
Cu 0.000000 1.840000 0.000000
Cu 0.000000 1.840000 3.680000
Cu 0.000000 1.840000 7.360000
Cu 0.000000 1.840000 11.040000
Cu 0.000000 5.520000 -11.040000
Cu 0.000000 5.520000 -7.360000
Cu 0.000000 5.520000 -3.680000
Cu 0.000000 5.520000 0.000000
Cu 0.000000 5.520000 3.680000
Cu 0.000000 5.520000 7.360000
Cu 0.000000 5.520000 11.040000
Cu 0.000000 9.200000 -11.040000
Cu 0.000000 9.200000 -7.360000
Cu 0.000000 9.200000 -3.680000
Cu 0.000000 9.200000 0.000000
Cu 0.000000 9.200000 3.680000
Cu 0.000000 9.200000 7.360000
Cu 0.000000 9.200000 11.040000
Cu 0.000000 12.880000 -11.040000
Cu 0.000000 12.880000 -7.360000
Cu 0.000000 12.880000 -3.680000
Cu 0.000000 12.880000 0.000000
Cu 0.000000 12.880000 3.680000
Cu 0.000000 12.880000 7.360000
Cu 0.000000 12.880000 11.040000
Cu 3.680000 -12.880000 -11.040000
Cu 3.680000 -12.880000 -7.360000
Cu 3.680000 -12.880000 -3.680000
Cu 3.680000 -12.880000 0.000000
Cu 3.680000 -12.880000 3.680000
Cu 3.680000 -12.880000 7.360000
Cu 3.680000 -12.880000 11.040000
Cu 3.680000 -9.200000 -11.040000
Cu 3.680000 -9.200000 -7.360000
Cu 3.680000 -9.200000 -3.680000
Cu 3.680000 -9.200000 0.000000
Cu 3.680000 -9.200000 3.680000
Cu 3.680000 -9.200000 7.360000
Cu 3.680000 -9.200000 11.040000
Cu 3.680000 -5.520000 -11.040000
Cu 3.680000 -5.520000 -7.360000
Cu 3.680000 -5.520000 -3.680000
Cu 3.680000 -5.520000 0.000000
Cu 3.680000 -5.520000 3.680000
Cu 3.680000 -5.520000 7.360000
Cu 3.680000 -5.520000 11.040000
Cu 3.680000 -1.840000 -11.040000
Cu 3.680000 -1.840000 -7.360000
Cu 3.680000 -1.840000 -3.680000
Cu 3.680000 -1.840000 0.000000
Cu 3.680000 -1.840000 3.680000
Cu 3.680000 -1.840000 7.360000
Cu 3.680000 -1.840000 11.040000
Cu 3.680000 1.840000 -11.040000
Cu 3.680000 1.840000 -7.360000
Cu 3.680000 1.840000 -3.680000
Cu 3.680000 1.840000 0.000000
Cu 3.680000 1.840000 3.680000
Cu 3.680000 1.840000 7.360000
Cu 3.680000 1.840000 11.040000
Cu 3.680000 5.520000 -11.040000
Cu 3.680000 5.520000 -7.360000
Cu 3.680000 5.520000 -3.680000
Cu 3.680000 5.520000 0.000000
Cu 3.680000 5.520000 3.680000
Cu 3.680000 5.520000 7.360000
Cu 3.680000 5.520000 11.040000
Cu 3.680000 9.200000 -11.040000
Cu 3.680000 9.200000 -7.360000
Cu 3.680000 9.200000 -3.680000
Cu 3.680000 9.200000 0.000000
Cu 3.680000 9.200000 3.680000
Cu 3.680000 9.200000 7.360000
Cu 3.680000 9.200000 11.040000
Cu 3.680000 12.880000 -11.040000
Cu 3.680000 12.880000 -7.360000
Cu 3.680000 12.880000 -3.680000
Cu 3.680000 12.880000 0.000000
Cu 3.680000 12.880000 3.680000
Cu 3.680000 12.880000 7.360000
Cu 3.680000 12.880000 11.040000
Cu 7.360000 -12.880000 -11.040000
Cu 7.360000 -12.880000 -7.360000
Cu 7.360000 -12.880000 -3.680000
Cu 7.360000 -12.880000 0.000000
Cu 7.360000 -12.880000 3.680000
Cu 7.360000 -12.880000 7.360000
Cu 7.360000 -12.880000 11.040000
Cu 7.360000 -9.200000 -11.040000
Cu 7.360000 -9.200000 -7.360000
Cu 7.360000 -9.200000 -3.680000
Cu 7.360000 -9.200000 0.000000
Cu 7.360000 -9.200000 3.680000
Cu 7.360000 -9.200000 7.360000
Cu 7.360000 -9.200000 11.040000
Cu 7.360000 -5.520000 -11.040000
Cu 7.360000 -5.520000 -7.360000
Cu 7.360000 -5.520000 -3.680000
Cu 7.360000 -5.520000 0.000000
Cu 7.360000 -5.520000 3.680000
Cu 7.360000 -5.520000 7.360000
Cu 7.360000 -5.520000 11.040000
Cu 7.360000 -1.840000 -11.040000
Cu 7.360000 -1.840000 -7.360000
Cu 7.360000 -1.840000 -3.680000
Cu 7.360000 -1.840000 0.000000
Cu 7.360000 -1.840000 3.680000
Cu 7.360000 -1.840000 7.360000
Cu 7.360000 -1.840000 11.040000
Cu 7.360000 1.840000 -11.040000
Cu 7.360000 1.840000 -7.360000
Cu 7.360000 1.840000 -3.680000
Cu 7.360000 1.840000 0.000000
Cu 7.360000 1.840000 3.680000
Cu 7.360000 1.840000 7.360000
Cu 7.360000 1.840000 11.040000
Cu 7.360000 5.520000 -11.040000
Cu 7.360000 5.520000 -7.360000
Cu 7.360000 5.520000 -3.680000
Cu 7.360000 5.520000 0.000000
Cu 7.360000 5.520000 3.680000
Cu 7.360000 5.520000 7.360000
Cu 7.360000 5.520000 11.040000
Cu 7.360000 9.200000 -11.040000
Cu 7.360000 9.200000 -7.360000
Cu 7.360000 9.200000 -3.680000
Cu 7.360000 9.200000 0.000000
Cu 7.360000 9.200000 3.680000
Cu 7.360000 9.200000 7.360000
Cu 7.360000 9.200000 11.040000
Cu 7.360000 12.880000 -11.040000
Cu 7.360000 12.880000 -7.360000
Cu 7.360000 12.880000 -3.680000
Cu 7.360000 12.880000 0.000000
Cu 7.360000 12.880000 3.680000
Cu 7.360000 12.880000 7.360000
Cu 7.360000 12.880000 11.040000
Cu 11.040000 -12.880000 -11.040000
Cu 11.040000 -12.880000 -7.360000
Cu 11.040000 -12.880000 -3.680000
Cu 11.040000 -12.880000 0.000000
Cu 11.040000 -12.880000 3.680000
Cu 11.040000 -12.880000 7.360000
Cu 11.040000 -12.880000 11.040000
Cu 11.040000 -9.200000 -11.040000
Cu 11.040000 -9.200000 -7.360000
Cu 11.040000 -9.200000 -3.680000
Cu 11.040000 -9.200000 0.000000
Cu 11.040000 -9.200000 3.680000
Cu 11.040000 -9.200000 7.360000
Cu 11.040000 -9.200000 11.040000
Cu 11.040000 -5.520000 -11.040000
Cu 11.040000 -5.520000 -7.360000
Cu 11.040000 -5.520000 -3.680000
Cu 11.040000 -5.520000 0.000000
Cu 11.040000 -5.520000 3.680000
Cu 11.040000 -5.520000 7.360000
Cu 11.040000 -5.520000 11.040000
Cu 11.040000 -1.840000 -11.040000
Cu 11.040000 -1.840000 -7.360000
Cu 11.040000 -1.840000 -3.680000
Cu 11.040000 -1.840000 0.000000
Cu 11.040000 -1.840000 3.680000
Cu 11.040000 -1.840000 7.360000
Cu 11.040000 -1.840000 11.040000
Cu 11.040000 1.840000 -11.040000
Cu 11.040000 1.840000 -7.360000
Cu 11.040000 1.840000 -3.680000
Cu 11.040000 1.840000 0.000000
Cu 11.040000 1.840000 3.680000
Cu 11.040000 1.840000 7.360000
Cu 11.040000 1.840000 11.040000
Cu 11.040000 5.520000 -11.040000
Cu 11.040000 5.520000 -7.360000
Cu 11.040000 5.520000 -3.680000
Cu 11.040000 5.520000 0.000000
Cu 11.040000 5.520000 3.680000
Cu 11.040000 5.520000 7.360000
Cu 11.040000 5.520000 11.040000
Cu 11.040000 9.200000 -11.040000
Cu 11.040000 9.200000 -7.360000
Cu 11.040000 9.200000 -3.680000
Cu 11.040000 9.200000 0.000000
Cu 11.040000 9.200000 3.680000
Cu 11.040000 9.200000 7.360000
Cu 11.040000 9.200000 11.040000
Cu 11.040000 12.880000 -11.040000
Cu 11.040000 12.880000 -7.360000
Cu 11.040000 12.880000 -3.680000
Cu 11.040000 12.880000 0.000000
Cu 11.040000 12.880000 3.680000
Cu 11.040000 12.880000 7.360000
Cu 11.040000 12.880000 11.040000
