201
Cu Cu
  Cu   5.12000   0.00000   0.00000   1
  Cu   7.68000   0.00000   0.00000   1
  Cu  10.24000   0.00000   0.00000   1
  Cu   2.56000   2.56000   0.00000   1
  Cu   5.12000   2.56000   0.00000   1
  Cu   7.68000   2.56000   0.00000   1
  Cu  10.24000   2.56000   0.00000   1
  Cu  12.80000   2.56000   0.00000   1
  Cu   0.00000   5.12000   0.00000   1
  Cu   2.56000   5.12000   0.00000   1
  Cu   5.12000   5.12000   0.00000   1
  Cu   7.68000   5.12000   0.00000   1
  Cu  10.24000   5.12000   0.00000   1
  Cu  12.80000   5.12000   0.00000   1
  Cu  15.36000   5.12000   0.00000   1
  Cu   0.00000   7.68000   0.00000   1
  Cu   2.56000   7.68000   0.00000   1
  Cu   5.12000   7.68000   0.00000   1
  Cu   7.68000   7.68000   0.00000   1
  Cu  10.24000   7.68000   0.00000   1
  Cu  12.80000   7.68000   0.00000   1
  Cu  15.36000   7.68000   0.00000   1
  Cu   0.00000  10.24000   0.00000   1
  Cu   2.56000  10.24000   0.00000   1
  Cu   5.12000  10.24000   0.00000   1
  Cu   7.68000  10.24000   0.00000   1
  Cu  10.24000  10.24000   0.00000   1
  Cu  12.80000  10.24000   0.00000   1
  Cu  15.36000  10.24000   0.00000   1
  Cu   2.56000  12.80000   0.00000   1
  Cu   5.12000  12.80000   0.00000   1
  Cu   7.68000  12.80000   0.00000   1
  Cu  10.24000  12.80000   0.00000   1
  Cu  12.80000  12.80000   0.00000   1
  Cu   5.12000  15.36000   0.00000   1
  Cu   7.68000  15.36000   0.00000   1
  Cu  10.24000  15.36000   0.00000   1
  Cu   3.84000   1.28000   1.81019   1
  Cu   6.40000   1.28000   1.81019   1
  Cu   8.96000   1.28000   1.81019   1
  Cu  11.52000   1.28000   1.81019   1
  Cu   1.28000   3.84000   1.81019   1
  Cu   3.84000   3.84000   1.81019   1
  Cu   6.40000   3.84000   1.81019   1
  Cu   8.96000   3.84000   1.81019   1
  Cu  11.52000   3.84000   1.81019   1
  Cu  14.08000   3.84000   1.81019   1
  Cu   1.28000   6.40000   1.81019   1
  Cu   3.84000   6.40000   1.81019   1
  Cu   6.40000   6.40000   1.81019   1
  Cu   8.96000   6.40000   1.81019   1
  Cu  11.52000   6.40000   1.81019   1
  Cu  14.08000   6.40000   1.81019   1
  Cu   1.28000   8.96000   1.81019   1
  Cu   3.84000   8.96000   1.81019   1
  Cu   6.40000   8.96000   1.81019   1
  Cu   8.96000   8.96000   1.81019   1
  Cu  11.52000   8.96000   1.81019   1
  Cu  14.08000   8.96000   1.81019   1
  Cu   1.28000  11.52000   1.81019   1
  Cu   3.84000  11.52000   1.81019   1
  Cu   6.40000  11.52000   1.81019   1
  Cu   8.96000  11.52000   1.81019   1
  Cu  11.52000  11.52000   1.81019   1
  Cu  14.08000  11.52000   1.81019   1
  Cu   3.84000  14.08000   1.81019   1
  Cu   6.40000  14.08000   1.81019   1
  Cu   8.96000  14.08000   1.81019   1
  Cu  11.52000  14.08000   1.81019   1
  Cu   2.56000   2.56000   3.62039   1
  Cu   5.12000   2.56000   3.62039   1
  Cu   7.68000   2.56000   3.62039   1
  Cu  10.24000   2.56000   3.62039   1
  Cu  12.80000   2.56000   3.62039   1
  Cu   2.56000   5.12000   3.62039   1
  Cu   5.12000   5.12000   3.62039   1
  Cu   7.68000   5.12000   3.62039   1
  Cu  10.24000   5.12000   3.62039   1
  Cu  12.80000   5.12000   3.62039   1
  Cu   2.56000   7.68000   3.62039   1
  Cu   5.12000   7.68000   3.62039   1
  Cu   7.68000   7.68000   3.62039   1
  Cu  10.24000   7.68000   3.62039   1
  Cu  12.80000   7.68000   3.62039   1
  Cu   2.56000  10.24000   3.62039   1
  Cu   5.12000  10.24000   3.62039   1
  Cu   7.68000  10.24000   3.62039   1
  Cu  10.24000  10.24000   3.62039   1
  Cu  12.80000  10.24000   3.62039   1
  Cu   2.56000  12.80000   3.62039   1
  Cu   5.12000  12.80000   3.62039   1
  Cu   7.68000  12.80000   3.62039   1
  Cu  10.24000  12.80000   3.62039   1
  Cu  12.80000  12.80000   3.62039   1
  Cu   3.84000   3.84000   5.43058   1
  Cu   6.40000   3.84000   5.43058   1
  Cu   8.96000   3.84000   5.43058   1
  Cu  11.52000   3.84000   5.43058   1
  Cu   3.84000   6.40000   5.43058   1
  Cu   6.40000   6.40000   5.43058   1
  Cu   8.96000   6.40000   5.43058   1
  Cu  11.52000   6.40000   5.43058   1
  Cu   3.84000   8.96000   5.43058   1
  Cu   6.40000   8.96000   5.43058   1
  Cu   8.96000   8.96000   5.43058   1
  Cu  11.52000   8.96000   5.43058   1
  Cu   3.84000  11.52000   5.43058   1
  Cu   6.40000  11.52000   5.43058   1
  Cu   8.96000  11.52000   5.43058   1
  Cu  11.52000  11.52000   5.43058   1
  Cu   5.12000   5.12000   7.24077   1
  Cu   7.68000   5.12000   7.24077   1
  Cu  10.24000   5.12000   7.24077   1
  Cu   5.12000   7.68000   7.24077   1
  Cu   7.68000   7.68000   7.24077   1
  Cu  10.24000   7.68000   7.24077   1
  Cu   5.12000  10.24000   7.24077   1
  Cu   7.68000  10.24000   7.24077   1
  Cu  10.24000  10.24000   7.24077   1
  Cu   3.84000   1.28000  -1.81019   1
  Cu   6.40000   1.28000  -1.81019   1
  Cu   8.96000   1.28000  -1.81019   1
  Cu  11.52000   1.28000  -1.81019   1
  Cu   1.28000   3.84000  -1.81019   1
  Cu   3.84000   3.84000  -1.81019   1
  Cu   6.40000   3.84000  -1.81019   1
  Cu   8.96000   3.84000  -1.81019   1
  Cu  11.52000   3.84000  -1.81019   1
  Cu  14.08000   3.84000  -1.81019   1
  Cu   1.28000   6.40000  -1.81019   1
  Cu   3.84000   6.40000  -1.81019   1
  Cu   6.40000   6.40000  -1.81019   1
  Cu   8.96000   6.40000  -1.81019   1
  Cu  11.52000   6.40000  -1.81019   1
  Cu  14.08000   6.40000  -1.81019   1
  Cu   1.28000   8.96000  -1.81019   1
  Cu   3.84000   8.96000  -1.81019   1
  Cu   6.40000   8.96000  -1.81019   1
  Cu   8.96000   8.96000  -1.81019   1
  Cu  11.52000   8.96000  -1.81019   1
  Cu  14.08000   8.96000  -1.81019   1
  Cu   1.28000  11.52000  -1.81019   1
  Cu   3.84000  11.52000  -1.81019   1
  Cu   6.40000  11.52000  -1.81019   1
  Cu   8.96000  11.52000  -1.81019   1
  Cu  11.52000  11.52000  -1.81019   1
  Cu  14.08000  11.52000  -1.81019   1
  Cu   3.84000  14.08000  -1.81019   1
  Cu   6.40000  14.08000  -1.81019   1
  Cu   8.96000  14.08000  -1.81019   1
  Cu  11.52000  14.08000  -1.81019   1
  Cu   2.56000   2.56000  -3.62039   1
  Cu   5.12000   2.56000  -3.62039   1
  Cu   7.68000   2.56000  -3.62039   1
  Cu  10.24000   2.56000  -3.62039   1
  Cu  12.80000   2.56000  -3.62039   1
  Cu   2.56000   5.12000  -3.62039   1
  Cu   5.12000   5.12000  -3.62039   1
  Cu   7.68000   5.12000  -3.62039   1
  Cu  10.24000   5.12000  -3.62039   1
  Cu  12.80000   5.12000  -3.62039   1
  Cu   2.56000   7.68000  -3.62039   1
  Cu   5.12000   7.68000  -3.62039   1
  Cu   7.68000   7.68000  -3.62039   1
  Cu  10.24000   7.68000  -3.62039   1
  Cu  12.80000   7.68000  -3.62039   1
  Cu   2.56000  10.24000  -3.62039   1
  Cu   5.12000  10.24000  -3.62039   1
  Cu   7.68000  10.24000  -3.62039   1
  Cu  10.24000  10.24000  -3.62039   1
  Cu  12.80000  10.24000  -3.62039   1
  Cu   2.56000  12.80000  -3.62039   1
  Cu   5.12000  12.80000  -3.62039   1
  Cu   7.68000  12.80000  -3.62039   1
  Cu  10.24000  12.80000  -3.62039   1
  Cu  12.80000  12.80000  -3.62039   1
  Cu   3.84000   3.84000  -5.43058   1
  Cu   6.40000   3.84000  -5.43058   1
  Cu   8.96000   3.84000  -5.43058   1
  Cu  11.52000   3.84000  -5.43058   1
  Cu   3.84000   6.40000  -5.43058   1
  Cu   6.40000   6.40000  -5.43058   1
  Cu   8.96000   6.40000  -5.43058   1
  Cu  11.52000   6.40000  -5.43058   1
  Cu   3.84000   8.96000  -5.43058   1
  Cu   6.40000   8.96000  -5.43058   1
  Cu   8.96000   8.96000  -5.43058   1
  Cu  11.52000   8.96000  -5.43058   1
  Cu   3.84000  11.52000  -5.43058   1
  Cu   6.40000  11.52000  -5.43058   1
  Cu   8.96000  11.52000  -5.43058   1
  Cu  11.52000  11.52000  -5.43058   1
  Cu   5.12000   5.12000  -7.24077   1
  Cu   7.68000   5.12000  -7.24077   1
  Cu  10.24000   5.12000  -7.24077   1
  Cu   5.12000   7.68000  -7.24077   1
  Cu   7.68000   7.68000  -7.24077   1
  Cu  10.24000   7.68000  -7.24077   1
  Cu   5.12000  10.24000  -7.24077   1
  Cu   7.68000  10.24000  -7.24077   1
  Cu  10.24000  10.24000  -7.24077   1
