201
Generated XYZ file with optional properties
Cu -2.560000 -7.680000 -0.000000
Cu 0.000000 -7.680000 -0.000000
Cu 2.560000 -7.680000 -0.000000
Cu -5.120000 -5.120000 -0.000000
Cu -2.560000 -5.120000 -0.000000
Cu 0.000000 -5.120000 -0.000000
Cu 2.560000 -5.120000 -0.000000
Cu 5.120000 -5.120000 -0.000000
Cu -7.680000 -2.560000 -0.000000
Cu -5.120000 -2.560000 -0.000000
Cu -2.560000 -2.560000 -0.000000
Cu 0.000000 -2.560000 -0.000000
Cu 2.560000 -2.560000 -0.000000
Cu 5.120000 -2.560000 -0.000000
Cu 7.680000 -2.560000 -0.000000
Cu -7.680000 -0.000000 -0.000000
Cu -5.120000 -0.000000 -0.000000
Cu -2.560000 -0.000000 -0.000000
Cu 0.000000 -0.000000 -0.000000
Cu 2.560000 -0.000000 -0.000000
Cu 5.120000 -0.000000 -0.000000
Cu 7.680000 -0.000000 -0.000000
Cu -7.680000 2.560000 -0.000000
Cu -5.120000 2.560000 -0.000000
Cu -2.560000 2.560000 -0.000000
Cu 0.000000 2.560000 -0.000000
Cu 2.560000 2.560000 -0.000000
Cu 5.120000 2.560000 -0.000000
Cu 7.680000 2.560000 -0.000000
Cu -5.120000 5.120000 -0.000000
Cu -2.560000 5.120000 -0.000000
Cu 0.000000 5.120000 -0.000000
Cu 2.560000 5.120000 -0.000000
Cu 5.120000 5.120000 -0.000000
Cu -2.560000 7.680000 -0.000000
Cu 0.000000 7.680000 -0.000000
Cu 2.560000 7.680000 -0.000000
Cu -3.840000 -6.400000 1.810190
Cu -1.280000 -6.400000 1.810190
Cu 1.280000 -6.400000 1.810190
Cu 3.840000 -6.400000 1.810190
Cu -6.400000 -3.840000 1.810190
Cu -3.840000 -3.840000 1.810190
Cu -1.280000 -3.840000 1.810190
Cu 1.280000 -3.840000 1.810190
Cu 3.840000 -3.840000 1.810190
Cu 6.400000 -3.840000 1.810190
Cu -6.400000 -1.280000 1.810190
Cu -3.840000 -1.280000 1.810190
Cu -1.280000 -1.280000 1.810190
Cu 1.280000 -1.280000 1.810190
Cu 3.840000 -1.280000 1.810190
Cu 6.400000 -1.280000 1.810190
Cu -6.400000 1.280000 1.810190
Cu -3.840000 1.280000 1.810190
Cu -1.280000 1.280000 1.810190
Cu 1.280000 1.280000 1.810190
Cu 3.840000 1.280000 1.810190
Cu 6.400000 1.280000 1.810190
Cu -6.400000 3.840000 1.810190
Cu -3.840000 3.840000 1.810190
Cu -1.280000 3.840000 1.810190
Cu 1.280000 3.840000 1.810190
Cu 3.840000 3.840000 1.810190
Cu 6.400000 3.840000 1.810190
Cu -3.840000 6.400000 1.810190
Cu -1.280000 6.400000 1.810190
Cu 1.280000 6.400000 1.810190
Cu 3.840000 6.400000 1.810190
Cu -5.120000 -5.120000 3.620390
Cu -2.560000 -5.120000 3.620390
Cu 0.000000 -5.120000 3.620390
Cu 2.560000 -5.120000 3.620390
Cu 5.120000 -5.120000 3.620390
Cu -5.120000 -2.560000 3.620390
Cu -2.560000 -2.560000 3.620390
Cu 0.000000 -2.560000 3.620390
Cu 2.560000 -2.560000 3.620390
Cu 5.120000 -2.560000 3.620390
Cu -5.120000 -0.000000 3.620390
Cu -2.560000 -0.000000 3.620390
Cu 0.000000 -0.000000 3.620390
Cu 2.560000 -0.000000 3.620390
Cu 5.120000 -0.000000 3.620390
Cu -5.120000 2.560000 3.620390
Cu -2.560000 2.560000 3.620390
Cu 0.000000 2.560000 3.620390
Cu 2.560000 2.560000 3.620390
Cu 5.120000 2.560000 3.620390
Cu -5.120000 5.120000 3.620390
Cu -2.560000 5.120000 3.620390
Cu 0.000000 5.120000 3.620390
Cu 2.560000 5.120000 3.620390
Cu 5.120000 5.120000 3.620390
Cu -3.840000 -3.840000 5.430580
Cu -1.280000 -3.840000 5.430580
Cu 1.280000 -3.840000 5.430580
Cu 3.840000 -3.840000 5.430580
Cu -3.840000 -1.280000 5.430580
Cu -1.280000 -1.280000 5.430580
Cu 1.280000 -1.280000 5.430580
Cu 3.840000 -1.280000 5.430580
Cu -3.840000 1.280000 5.430580
Cu -1.280000 1.280000 5.430580
Cu 1.280000 1.280000 5.430580
Cu 3.840000 1.280000 5.430580
Cu -3.840000 3.840000 5.430580
Cu -1.280000 3.840000 5.430580
Cu 1.280000 3.840000 5.430580
Cu 3.840000 3.840000 5.430580
Cu -2.560000 -2.560000 7.240770
Cu 0.000000 -2.560000 7.240770
Cu 2.560000 -2.560000 7.240770
Cu -2.560000 -0.000000 7.240770
Cu 0.000000 -0.000000 7.240770
Cu 2.560000 -0.000000 7.240770
Cu -2.560000 2.560000 7.240770
Cu 0.000000 2.560000 7.240770
Cu 2.560000 2.560000 7.240770
Cu -3.840000 -6.400000 -1.810190
Cu -1.280000 -6.400000 -1.810190
Cu 1.280000 -6.400000 -1.810190
Cu 3.840000 -6.400000 -1.810190
Cu -6.400000 -3.840000 -1.810190
Cu -3.840000 -3.840000 -1.810190
Cu -1.280000 -3.840000 -1.810190
Cu 1.280000 -3.840000 -1.810190
Cu 3.840000 -3.840000 -1.810190
Cu 6.400000 -3.840000 -1.810190
Cu -6.400000 -1.280000 -1.810190
Cu -3.840000 -1.280000 -1.810190
Cu -1.280000 -1.280000 -1.810190
Cu 1.280000 -1.280000 -1.810190
Cu 3.840000 -1.280000 -1.810190
Cu 6.400000 -1.280000 -1.810190
Cu -6.400000 1.280000 -1.810190
Cu -3.840000 1.280000 -1.810190
Cu -1.280000 1.280000 -1.810190
Cu 1.280000 1.280000 -1.810190
Cu 3.840000 1.280000 -1.810190
Cu 6.400000 1.280000 -1.810190
Cu -6.400000 3.840000 -1.810190
Cu -3.840000 3.840000 -1.810190
Cu -1.280000 3.840000 -1.810190
Cu 1.280000 3.840000 -1.810190
Cu 3.840000 3.840000 -1.810190
Cu 6.400000 3.840000 -1.810190
Cu -3.840000 6.400000 -1.810190
Cu -1.280000 6.400000 -1.810190
Cu 1.280000 6.400000 -1.810190
Cu 3.840000 6.400000 -1.810190
Cu -5.120000 -5.120000 -3.620390
Cu -2.560000 -5.120000 -3.620390
Cu 0.000000 -5.120000 -3.620390
Cu 2.560000 -5.120000 -3.620390
Cu 5.120000 -5.120000 -3.620390
Cu -5.120000 -2.560000 -3.620390
Cu -2.560000 -2.560000 -3.620390
Cu 0.000000 -2.560000 -3.620390
Cu 2.560000 -2.560000 -3.620390
Cu 5.120000 -2.560000 -3.620390
Cu -5.120000 -0.000000 -3.620390
Cu -2.560000 -0.000000 -3.620390
Cu 0.000000 -0.000000 -3.620390
Cu 2.560000 -0.000000 -3.620390
Cu 5.120000 -0.000000 -3.620390
Cu -5.120000 2.560000 -3.620390
Cu -2.560000 2.560000 -3.620390
Cu 0.000000 2.560000 -3.620390
Cu 2.560000 2.560000 -3.620390
Cu 5.120000 2.560000 -3.620390
Cu -5.120000 5.120000 -3.620390
Cu -2.560000 5.120000 -3.620390
Cu 0.000000 5.120000 -3.620390
Cu 2.560000 5.120000 -3.620390
Cu 5.120000 5.120000 -3.620390
Cu -3.840000 -3.840000 -5.430580
Cu -1.280000 -3.840000 -5.430580
Cu 1.280000 -3.840000 -5.430580
Cu 3.840000 -3.840000 -5.430580
Cu -3.840000 -1.280000 -5.430580
Cu -1.280000 -1.280000 -5.430580
Cu 1.280000 -1.280000 -5.430580
Cu 3.840000 -1.280000 -5.430580
Cu -3.840000 1.280000 -5.430580
Cu -1.280000 1.280000 -5.430580
Cu 1.280000 1.280000 -5.430580
Cu 3.840000 1.280000 -5.430580
Cu -3.840000 3.840000 -5.430580
Cu -1.280000 3.840000 -5.430580
Cu 1.280000 3.840000 -5.430580
Cu 3.840000 3.840000 -5.430580
Cu -2.560000 -2.560000 -7.240770
Cu 0.000000 -2.560000 -7.240770
Cu 2.560000 -2.560000 -7.240770
Cu -2.560000 -0.000000 -7.240770
Cu 0.000000 -0.000000 -7.240770
Cu 2.560000 -0.000000 -7.240770
Cu -2.560000 2.560000 -7.240770
Cu 0.000000 2.560000 -7.240770
Cu 2.560000 2.560000 -7.240770
