4631
Lattice="36.1125054068 0.0 0.0 0.0 36.1125054068 0.0 0.0 0.0 36.1125054068" Origin="13.2072643732 13.2072643732 13.2072643732" Properties=species:S:1:pos:R:3:id:I:1
Cu 13.213517073 13.213517073 13.213517073 1
Cu 13.213517073 15.0185159719 15.0185159719 2
Cu 15.0185159719 13.213517073 15.0185159719 3
Cu 15.0185159719 15.0185159719 13.213517073 4
Cu 16.8235345521 13.213517073 13.213517073 442
Cu 16.8235345521 15.0185159719 15.0185159719 443
Cu 18.6285097974 13.213517073 15.0185159719 444
Cu 18.6285097974 15.0185159719 13.213517073 445
Cu 20.4335211551 13.213517073 13.213517073 883
Cu 20.4335211551 15.0185159719 15.0185159719 884
Cu 22.2385325129 13.213517073 15.0185159719 885
Cu 22.2385325129 15.0185159719 13.213517073 886
Cu 24.0435077581 13.213517073 13.213517073 1324
Cu 24.0435077581 15.0185159719 15.0185159719 1325
Cu 25.8485191159 13.213517073 15.0185159719 1326
Cu 25.8485191159 15.0185159719 13.213517073 1327
Cu 27.6535304736 13.213517073 13.213517073 1765
Cu 27.6535304736 15.0185159719 15.0185159719 1766
Cu 29.4585057189 13.213517073 15.0185159719 1767
Cu 29.4585057189 15.0185159719 13.213517073 1768
Cu 31.2635170766 13.213517073 13.213517073 2206
Cu 31.2635170766 15.0185159719 15.0185159719 2207
Cu 33.0685284344 13.213517073 15.0185159719 2208
Cu 33.0685284344 15.0185159719 13.213517073 2209
Cu 34.8735036796 13.213517073 13.213517073 2647
Cu 34.8735036796 15.0185159719 15.0185159719 2648
Cu 36.6785150374 13.213517073 15.0185159719 2649
Cu 36.6785150374 15.0185159719 13.213517073 2650
Cu 38.4835263951 13.213517073 13.213517073 3088
Cu 38.4835263951 15.0185159719 15.0185159719 3089
Cu 40.2885016404 13.213517073 15.0185159719 3090
Cu 40.2885016404 15.0185159719 13.213517073 3091
Cu 42.0935129981 13.213517073 13.213517073 3529
Cu 42.0935129981 15.0185159719 15.0185159719 3530
Cu 43.8985243559 13.213517073 15.0185159719 3531
Cu 43.8985243559 15.0185159719 13.213517073 3532
Cu 45.7034996011 13.213517073 13.213517073 3970
Cu 45.7034996011 15.0185159719 15.0185159719 3971
Cu 47.5085109588 13.213517073 15.0185159719 3972
Cu 47.5085109588 15.0185159719 13.213517073 3973
Cu 49.3135223166 13.213517073 13.213517073 4411
Cu 49.3135223166 15.0185159719 15.0185159719 4412
Cu 13.213517073 16.8235345521 13.213517073 43
Cu 13.213517073 18.6285097974 15.0185159719 44
Cu 15.0185159719 16.8235345521 15.0185159719 45
Cu 15.0185159719 18.6285097974 13.213517073 46
Cu 16.8235345521 16.8235345521 13.213517073 484
Cu 16.8235345521 18.6285097974 15.0185159719 485
Cu 18.6285097974 16.8235345521 15.0185159719 486
Cu 18.6285097974 18.6285097974 13.213517073 487
Cu 20.4335211551 16.8235345521 13.213517073 925
Cu 20.4335211551 18.6285097974 15.0185159719 926
Cu 22.2385325129 16.8235345521 15.0185159719 927
Cu 22.2385325129 18.6285097974 13.213517073 928
Cu 24.0435077581 16.8235345521 13.213517073 1366
Cu 24.0435077581 18.6285097974 15.0185159719 1367
Cu 25.8485191159 16.8235345521 15.0185159719 1368
Cu 25.8485191159 18.6285097974 13.213517073 1369
Cu 27.6535304736 16.8235345521 13.213517073 1807
Cu 27.6535304736 18.6285097974 15.0185159719 1808
Cu 29.4585057189 16.8235345521 15.0185159719 1809
Cu 29.4585057189 18.6285097974 13.213517073 1810
Cu 31.2635170766 16.8235345521 13.213517073 2248
Cu 31.2635170766 18.6285097974 15.0185159719 2249
Cu 33.0685284344 16.8235345521 15.0185159719 2250
Cu 33.0685284344 18.6285097974 13.213517073 2251
Cu 34.8735036796 16.8235345521 13.213517073 2689
Cu 34.8735036796 18.6285097974 15.0185159719 2690
Cu 36.6785150374 16.8235345521 15.0185159719 2691
Cu 36.6785150374 18.6285097974 13.213517073 2692
Cu 38.4835263951 16.8235345521 13.213517073 3130
Cu 38.4835263951 18.6285097974 15.0185159719 3131
Cu 40.2885016404 16.8235345521 15.0185159719 3132
Cu 40.2885016404 18.6285097974 13.213517073 3133
Cu 42.0935129981 16.8235345521 13.213517073 3571
Cu 42.0935129981 18.6285097974 15.0185159719 3572
Cu 43.8985243559 16.8235345521 15.0185159719 3573
Cu 43.8985243559 18.6285097974 13.213517073 3574
Cu 45.7034996011 16.8235345521 13.213517073 4012
Cu 45.7034996011 18.6285097974 15.0185159719 4013
Cu 47.5085109588 16.8235345521 15.0185159719 4014
Cu 47.5085109588 18.6285097974 13.213517073 4015
Cu 49.3135223166 16.8235345521 13.213517073 4432
Cu 49.3135223166 18.6285097974 15.0185159719 4433
Cu 13.213517073 20.4335211551 13.213517073 85
Cu 13.213517073 22.2385325129 15.0185159719 86
Cu 15.0185159719 20.4335211551 15.0185159719 87
Cu 15.0185159719 22.2385325129 13.213517073 88
Cu 16.8235345521 20.4335211551 13.213517073 526
Cu 16.8235345521 22.2385325129 15.0185159719 527
Cu 18.6285097974 20.4335211551 15.0185159719 528
Cu 18.6285097974 22.2385325129 13.213517073 529
Cu 20.4335211551 20.4335211551 13.213517073 967
Cu 20.4335211551 22.2385325129 15.0185159719 968
Cu 22.2385325129 20.4335211551 15.0185159719 969
Cu 22.2385325129 22.2385325129 13.213517073 970
Cu 24.0435077581 20.4335211551 13.213517073 1408
Cu 24.0435077581 22.2385325129 15.0185159719 1409
Cu 25.8485191159 20.4335211551 15.0185159719 1410
Cu 25.8485191159 22.2385325129 13.213517073 1411
Cu 27.6535304736 20.4335211551 13.213517073 1849
Cu 27.6535304736 22.2385325129 15.0185159719 1850
Cu 29.4585057189 20.4335211551 15.0185159719 1851
Cu 29.4585057189 22.2385325129 13.213517073 1852
Cu 31.2635170766 20.4335211551 13.213517073 2290
Cu 31.2635170766 22.2385325129 15.0185159719 2291
Cu 33.0685284344 20.4335211551 15.0185159719 2292
Cu 33.0685284344 22.2385325129 13.213517073 2293
Cu 34.8735036796 20.4335211551 13.213517073 2731
Cu 34.8735036796 22.2385325129 15.0185159719 2732
Cu 36.6785150374 20.4335211551 15.0185159719 2733
Cu 36.6785150374 22.2385325129 13.213517073 2734
Cu 38.4835263951 20.4335211551 13.213517073 3172
Cu 38.4835263951 22.2385325129 15.0185159719 3173
Cu 40.2885016404 20.4335211551 15.0185159719 3174
Cu 40.2885016404 22.2385325129 13.213517073 3175
Cu 42.0935129981 20.4335211551 13.213517073 3613
Cu 42.0935129981 22.2385325129 15.0185159719 3614
Cu 43.8985243559 20.4335211551 15.0185159719 3615
Cu 43.8985243559 22.2385325129 13.213517073 3616
Cu 45.7034996011 20.4335211551 13.213517073 4054
Cu 45.7034996011 22.2385325129 15.0185159719 4055
Cu 47.5085109588 20.4335211551 15.0185159719 4056
Cu 47.5085109588 22.2385325129 13.213517073 4057
Cu 49.3135223166 20.4335211551 13.213517073 4453
Cu 49.3135223166 22.2385325129 15.0185159719 4454
Cu 13.213517073 24.0435077581 13.213517073 127
Cu 13.213517073 25.8485191159 15.0185159719 128
Cu 15.0185159719 24.0435077581 15.0185159719 129
Cu 15.0185159719 25.8485191159 13.213517073 130
Cu 16.8235345521 24.0435077581 13.213517073 568
Cu 16.8235345521 25.8485191159 15.0185159719 569
Cu 18.6285097974 24.0435077581 15.0185159719 570
Cu 18.6285097974 25.8485191159 13.213517073 571
Cu 20.4335211551 24.0435077581 13.213517073 1009
Cu 20.4335211551 25.8485191159 15.0185159719 1010
Cu 22.2385325129 24.0435077581 15.0185159719 1011
Cu 22.2385325129 25.8485191159 13.213517073 1012
Cu 24.0435077581 24.0435077581 13.213517073 1450
Cu 24.0435077581 25.8485191159 15.0185159719 1451
Cu 25.8485191159 24.0435077581 15.0185159719 1452
Cu 25.8485191159 25.8485191159 13.213517073 1453
Cu 27.6535304736 24.0435077581 13.213517073 1891
Cu 27.6535304736 25.8485191159 15.0185159719 1892
Cu 29.4585057189 24.0435077581 15.0185159719 1893
Cu 29.4585057189 25.8485191159 13.213517073 1894
Cu 31.2635170766 24.0435077581 13.213517073 2332
Cu 31.2635170766 25.8485191159 15.0185159719 2333
Cu 33.0685284344 24.0435077581 15.0185159719 2334
Cu 33.0685284344 25.8485191159 13.213517073 2335
Cu 34.8735036796 24.0435077581 13.213517073 2773
Cu 34.8735036796 25.8485191159 15.0185159719 2774
Cu 36.6785150374 24.0435077581 15.0185159719 2775
Cu 36.6785150374 25.8485191159 13.213517073 2776
Cu 38.4835263951 24.0435077581 13.213517073 3214
Cu 38.4835263951 25.8485191159 15.0185159719 3215
Cu 40.2885016404 24.0435077581 15.0185159719 3216
Cu 40.2885016404 25.8485191159 13.213517073 3217
Cu 42.0935129981 24.0435077581 13.213517073 3655
Cu 42.0935129981 25.8485191159 15.0185159719 3656
Cu 43.8985243559 24.0435077581 15.0185159719 3657
Cu 43.8985243559 25.8485191159 13.213517073 3658
Cu 45.7034996011 24.0435077581 13.213517073 4096
Cu 45.7034996011 25.8485191159 15.0185159719 4097
Cu 47.5085109588 24.0435077581 15.0185159719 4098
Cu 47.5085109588 25.8485191159 13.213517073 4099
Cu 49.3135223166 24.0435077581 13.213517073 4474
Cu 49.3135223166 25.8485191159 15.0185159719 4475
Cu 13.213517073 27.6535304736 13.213517073 169
Cu 13.213517073 29.4585057189 15.0185159719 170
Cu 15.0185159719 27.6535304736 15.0185159719 171
Cu 15.0185159719 29.4585057189 13.213517073 172
Cu 16.8235345521 27.6535304736 13.213517073 610
Cu 16.8235345521 29.4585057189 15.0185159719 611
Cu 18.6285097974 27.6535304736 15.0185159719 612
Cu 18.6285097974 29.4585057189 13.213517073 613
Cu 20.4335211551 27.6535304736 13.213517073 1051
Cu 20.4335211551 29.4585057189 15.0185159719 1052
Cu 22.2385325129 27.6535304736 15.0185159719 1053
Cu 22.2385325129 29.4585057189 13.213517073 1054
Cu 24.0435077581 27.6535304736 13.213517073 1492
Cu 24.0435077581 29.4585057189 15.0185159719 1493
Cu 25.8485191159 27.6535304736 15.0185159719 1494
Cu 25.8485191159 29.4585057189 13.213517073 1495
Cu 27.6535304736 27.6535304736 13.213517073 1933
Cu 27.6535304736 29.4585057189 15.0185159719 1934
Cu 29.4585057189 27.6535304736 15.0185159719 1935
Cu 29.4585057189 29.4585057189 13.213517073 1936
Cu 31.2635170766 27.6535304736 13.213517073 2374
Cu 31.2635170766 29.4585057189 15.0185159719 2375
Cu 33.0685284344 27.6535304736 15.0185159719 2376
Cu 33.0685284344 29.4585057189 13.213517073 2377
Cu 34.8735036796 27.6535304736 13.213517073 2815
Cu 34.8735036796 29.4585057189 15.0185159719 2816
Cu 36.6785150374 27.6535304736 15.0185159719 2817
Cu 36.6785150374 29.4585057189 13.213517073 2818
Cu 38.4835263951 27.6535304736 13.213517073 3256
Cu 38.4835263951 29.4585057189 15.0185159719 3257
Cu 40.2885016404 27.6535304736 15.0185159719 3258
Cu 40.2885016404 29.4585057189 13.213517073 3259
Cu 42.0935129981 27.6535304736 13.213517073 3697
Cu 42.0935129981 29.4585057189 15.0185159719 3698
Cu 43.8985243559 27.6535304736 15.0185159719 3699
Cu 43.8985243559 29.4585057189 13.213517073 3700
Cu 45.7034996011 27.6535304736 13.213517073 4138
Cu 45.7034996011 29.4585057189 15.0185159719 4139
Cu 47.5085109588 27.6535304736 15.0185159719 4140
Cu 47.5085109588 29.4585057189 13.213517073 4141
Cu 49.3135223166 27.6535304736 13.213517073 4495
Cu 49.3135223166 29.4585057189 15.0185159719 4496
Cu 13.213517073 31.2635170766 13.213517073 211
Cu 13.213517073 33.0685284344 15.0185159719 212
Cu 15.0185159719 31.2635170766 15.0185159719 213
Cu 15.0185159719 33.0685284344 13.213517073 214
Cu 13.213517073 34.8735036796 13.213517073 253
Cu 15.0185159719 34.8735036796 15.0185159719 255
Cu 16.8235345521 31.2635170766 13.213517073 652
Cu 16.8235345521 33.0685284344 15.0185159719 653
Cu 18.6285097974 31.2635170766 15.0185159719 654
Cu 18.6285097974 33.0685284344 13.213517073 655
Cu 16.8235345521 34.8735036796 13.213517073 694
Cu 18.6285097974 34.8735036796 15.0185159719 696
Cu 20.4335211551 31.2635170766 13.213517073 1093
Cu 20.4335211551 33.0685284344 15.0185159719 1094
Cu 22.2385325129 31.2635170766 15.0185159719 1095
Cu 22.2385325129 33.0685284344 13.213517073 1096
Cu 20.4335211551 34.8735036796 13.213517073 1135
Cu 22.2385325129 34.8735036796 15.0185159719 1137
Cu 24.0435077581 31.2635170766 13.213517073 1534
Cu 24.0435077581 33.0685284344 15.0185159719 1535
Cu 25.8485191159 31.2635170766 15.0185159719 1536
Cu 25.8485191159 33.0685284344 13.213517073 1537
Cu 24.0435077581 34.8735036796 13.213517073 1576
Cu 25.8485191159 34.8735036796 15.0185159719 1578
Cu 27.6535304736 31.2635170766 13.213517073 1975
Cu 27.6535304736 33.0685284344 15.0185159719 1976
Cu 29.4585057189 31.2635170766 15.0185159719 1977
Cu 29.4585057189 33.0685284344 13.213517073 1978
Cu 27.6535304736 34.8735036796 13.213517073 2017
Cu 29.4585057189 34.8735036796 15.0185159719 2019
Cu 31.2635170766 31.2635170766 13.213517073 2416
Cu 31.2635170766 33.0685284344 15.0185159719 2417
Cu 33.0685284344 31.2635170766 15.0185159719 2418
Cu 33.0685284344 33.0685284344 13.213517073 2419
Cu 31.2635170766 34.8735036796 13.213517073 2458
Cu 33.0685284344 34.8735036796 15.0185159719 2460
Cu 34.8735036796 31.2635170766 13.213517073 2857
Cu 34.8735036796 33.0685284344 15.0185159719 2858
Cu 34.8735036796 34.8735036796 13.213517073 2899
Cu 36.6785150374 31.2635170766 15.0185159719 2859
Cu 36.6785150374 33.0685284344 13.213517073 2860
Cu 36.6785150374 34.8735036796 15.0185159719 2901
Cu 38.4835263951 31.2635170766 13.213517073 3298
Cu 38.4835263951 33.0685284344 15.0185159719 3299
Cu 38.4835263951 34.8735036796 13.213517073 3340
Cu 40.2885016404 31.2635170766 15.0185159719 3300
Cu 40.2885016404 33.0685284344 13.213517073 3301
Cu 40.2885016404 34.8735036796 15.0185159719 3342
Cu 42.0935129981 31.2635170766 13.213517073 3739
Cu 42.0935129981 33.0685284344 15.0185159719 3740
Cu 42.0935129981 34.8735036796 13.213517073 3781
Cu 43.8985243559 31.2635170766 15.0185159719 3741
Cu 43.8985243559 33.0685284344 13.213517073 3742
Cu 43.8985243559 34.8735036796 15.0185159719 3783
Cu 45.7034996011 31.2635170766 13.213517073 4180
Cu 45.7034996011 33.0685284344 15.0185159719 4181
Cu 45.7034996011 34.8735036796 13.213517073 4222
Cu 47.5085109588 31.2635170766 15.0185159719 4182
Cu 47.5085109588 33.0685284344 13.213517073 4183
Cu 47.5085109588 34.8735036796 15.0185159719 4224
Cu 49.3135223166 31.2635170766 13.213517073 4516
Cu 49.3135223166 33.0685284344 15.0185159719 4517
Cu 49.3135223166 34.8735036796 13.213517073 4537
Cu 13.213517073 36.6785150374 15.0185159719 254
Cu 15.0185159719 36.6785150374 13.213517073 256
Cu 13.213517073 38.4835263951 13.213517073 295
Cu 15.0185159719 38.4835263951 15.0185159719 297
Cu 16.8235345521 36.6785150374 15.0185159719 695
Cu 18.6285097974 36.6785150374 13.213517073 697
Cu 16.8235345521 38.4835263951 13.213517073 736
Cu 18.6285097974 38.4835263951 15.0185159719 738
Cu 20.4335211551 36.6785150374 15.0185159719 1136
Cu 22.2385325129 36.6785150374 13.213517073 1138
Cu 20.4335211551 38.4835263951 13.213517073 1177
Cu 22.2385325129 38.4835263951 15.0185159719 1179
Cu 24.0435077581 36.6785150374 15.0185159719 1577
Cu 25.8485191159 36.6785150374 13.213517073 1579
Cu 24.0435077581 38.4835263951 13.213517073 1618
Cu 25.8485191159 38.4835263951 15.0185159719 1620
Cu 27.6535304736 36.6785150374 15.0185159719 2018
Cu 29.4585057189 36.6785150374 13.213517073 2020
Cu 27.6535304736 38.4835263951 13.213517073 2059
Cu 29.4585057189 38.4835263951 15.0185159719 2061
Cu 31.2635170766 36.6785150374 15.0185159719 2459
Cu 33.0685284344 36.6785150374 13.213517073 2461
Cu 31.2635170766 38.4835263951 13.213517073 2500
Cu 33.0685284344 38.4835263951 15.0185159719 2502
Cu 34.8735036796 36.6785150374 15.0185159719 2900
Cu 34.8735036796 38.4835263951 13.213517073 2941
Cu 36.6785150374 36.6785150374 13.213517073 2902
Cu 36.6785150374 38.4835263951 15.0185159719 2943
Cu 38.4835263951 36.6785150374 15.0185159719 3341
Cu 38.4835263951 38.4835263951 13.213517073 3382
Cu 40.2885016404 36.6785150374 13.213517073 3343
Cu 40.2885016404 38.4835263951 15.0185159719 3384
Cu 42.0935129981 36.6785150374 15.0185159719 3782
Cu 42.0935129981 38.4835263951 13.213517073 3823
Cu 43.8985243559 36.6785150374 13.213517073 3784
Cu 43.8985243559 38.4835263951 15.0185159719 3825
Cu 45.7034996011 36.6785150374 15.0185159719 4223
Cu 45.7034996011 38.4835263951 13.213517073 4264
Cu 47.5085109588 36.6785150374 13.213517073 4225
Cu 47.5085109588 38.4835263951 15.0185159719 4266
Cu 49.3135223166 36.6785150374 15.0185159719 4538
Cu 49.3135223166 38.4835263951 13.213517073 4558
Cu 13.213517073 40.2885016404 15.0185159719 296
Cu 15.0185159719 40.2885016404 13.213517073 298
Cu 13.213517073 42.0935129981 13.213517073 337
Cu 15.0185159719 42.0935129981 15.0185159719 339
Cu 16.8235345521 40.2885016404 15.0185159719 737
Cu 18.6285097974 40.2885016404 13.213517073 739
Cu 16.8235345521 42.0935129981 13.213517073 778
Cu 18.6285097974 42.0935129981 15.0185159719 780
Cu 20.4335211551 40.2885016404 15.0185159719 1178
Cu 22.2385325129 40.2885016404 13.213517073 1180
Cu 20.4335211551 42.0935129981 13.213517073 1219
Cu 22.2385325129 42.0935129981 15.0185159719 1221
Cu 24.0435077581 40.2885016404 15.0185159719 1619
Cu 25.8485191159 40.2885016404 13.213517073 1621
Cu 24.0435077581 42.0935129981 13.213517073 1660
Cu 25.8485191159 42.0935129981 15.0185159719 1662
Cu 27.6535304736 40.2885016404 15.0185159719 2060
Cu 29.4585057189 40.2885016404 13.213517073 2062
Cu 27.6535304736 42.0935129981 13.213517073 2101
Cu 29.4585057189 42.0935129981 15.0185159719 2103
Cu 31.2635170766 40.2885016404 15.0185159719 2501
Cu 33.0685284344 40.2885016404 13.213517073 2503
Cu 31.2635170766 42.0935129981 13.213517073 2542
Cu 33.0685284344 42.0935129981 15.0185159719 2544
Cu 34.8735036796 40.2885016404 15.0185159719 2942
Cu 34.8735036796 42.0935129981 13.213517073 2983
Cu 36.6785150374 40.2885016404 13.213517073 2944
Cu 36.6785150374 42.0935129981 15.0185159719 2985
Cu 38.4835263951 40.2885016404 15.0185159719 3383
Cu 38.4835263951 42.0935129981 13.213517073 3424
Cu 40.2885016404 40.2885016404 13.213517073 3385
Cu 40.2885016404 42.0935129981 15.0185159719 3426
Cu 42.0935129981 40.2885016404 15.0185159719 3824
Cu 42.0935129981 42.0935129981 13.213517073 3865
Cu 43.8985243559 40.2885016404 13.213517073 3826
Cu 43.8985243559 42.0935129981 15.0185159719 3867
Cu 45.7034996011 40.2885016404 15.0185159719 4265
Cu 45.7034996011 42.0935129981 13.213517073 4306
Cu 47.5085109588 40.2885016404 13.213517073 4267
Cu 47.5085109588 42.0935129981 15.0185159719 4308
Cu 49.3135223166 40.2885016404 15.0185159719 4559
Cu 49.3135223166 42.0935129981 13.213517073 4579
Cu 13.213517073 43.8985243559 15.0185159719 338
Cu 15.0185159719 43.8985243559 13.213517073 340
Cu 13.213517073 45.7034996011 13.213517073 379
Cu 15.0185159719 45.7034996011 15.0185159719 381
Cu 16.8235345521 43.8985243559 15.0185159719 779
Cu 18.6285097974 43.8985243559 13.213517073 781
Cu 16.8235345521 45.7034996011 13.213517073 820
Cu 18.6285097974 45.7034996011 15.0185159719 822
Cu 20.4335211551 43.8985243559 15.0185159719 1220
Cu 22.2385325129 43.8985243559 13.213517073 1222
Cu 20.4335211551 45.7034996011 13.213517073 1261
Cu 22.2385325129 45.7034996011 15.0185159719 1263
Cu 24.0435077581 43.8985243559 15.0185159719 1661
Cu 25.8485191159 43.8985243559 13.213517073 1663
Cu 24.0435077581 45.7034996011 13.213517073 1702
Cu 25.8485191159 45.7034996011 15.0185159719 1704
Cu 27.6535304736 43.8985243559 15.0185159719 2102
Cu 29.4585057189 43.8985243559 13.213517073 2104
Cu 27.6535304736 45.7034996011 13.213517073 2143
Cu 29.4585057189 45.7034996011 15.0185159719 2145
Cu 31.2635170766 43.8985243559 15.0185159719 2543
Cu 33.0685284344 43.8985243559 13.213517073 2545
Cu 31.2635170766 45.7034996011 13.213517073 2584
Cu 33.0685284344 45.7034996011 15.0185159719 2586
Cu 34.8735036796 43.8985243559 15.0185159719 2984
Cu 34.8735036796 45.7034996011 13.213517073 3025
Cu 36.6785150374 43.8985243559 13.213517073 2986
Cu 36.6785150374 45.7034996011 15.0185159719 3027
Cu 38.4835263951 43.8985243559 15.0185159719 3425
Cu 38.4835263951 45.7034996011 13.213517073 3466
Cu 40.2885016404 43.8985243559 13.213517073 3427
Cu 40.2885016404 45.7034996011 15.0185159719 3468
Cu 42.0935129981 43.8985243559 15.0185159719 3866
Cu 42.0935129981 45.7034996011 13.213517073 3907
Cu 43.8985243559 43.8985243559 13.213517073 3868
Cu 43.8985243559 45.7034996011 15.0185159719 3909
Cu 45.7034996011 43.8985243559 15.0185159719 4307
Cu 45.7034996011 45.7034996011 13.213517073 4348
Cu 47.5085109588 43.8985243559 13.213517073 4309
Cu 47.5085109588 45.7034996011 15.0185159719 4350
Cu 49.3135223166 43.8985243559 15.0185159719 4580
Cu 49.3135223166 45.7034996011 13.213517073 4600
Cu 13.213517073 47.5085109588 15.0185159719 380
Cu 15.0185159719 47.5085109588 13.213517073 382
Cu 13.213517073 49.3135223166 13.213517073 421
Cu 15.0185159719 49.3135223166 15.0185159719 422
Cu 16.8235345521 47.5085109588 15.0185159719 821
Cu 18.6285097974 47.5085109588 13.213517073 823
Cu 16.8235345521 49.3135223166 13.213517073 862
Cu 18.6285097974 49.3135223166 15.0185159719 863
Cu 20.4335211551 47.5085109588 15.0185159719 1262
Cu 22.2385325129 47.5085109588 13.213517073 1264
Cu 20.4335211551 49.3135223166 13.213517073 1303
Cu 22.2385325129 49.3135223166 15.0185159719 1304
Cu 24.0435077581 47.5085109588 15.0185159719 1703
Cu 25.8485191159 47.5085109588 13.213517073 1705
Cu 24.0435077581 49.3135223166 13.213517073 1744
Cu 25.8485191159 49.3135223166 15.0185159719 1745
Cu 27.6535304736 47.5085109588 15.0185159719 2144
Cu 29.4585057189 47.5085109588 13.213517073 2146
Cu 27.6535304736 49.3135223166 13.213517073 2185
Cu 29.4585057189 49.3135223166 15.0185159719 2186
Cu 31.2635170766 47.5085109588 15.0185159719 2585
Cu 33.0685284344 47.5085109588 13.213517073 2587
Cu 31.2635170766 49.3135223166 13.213517073 2626
Cu 33.0685284344 49.3135223166 15.0185159719 2627
Cu 34.8735036796 47.5085109588 15.0185159719 3026
Cu 34.8735036796 49.3135223166 13.213517073 3067
Cu 36.6785150374 47.5085109588 13.213517073 3028
Cu 36.6785150374 49.3135223166 15.0185159719 3068
Cu 38.4835263951 47.5085109588 15.0185159719 3467
Cu 38.4835263951 49.3135223166 13.213517073 3508
Cu 40.2885016404 47.5085109588 13.213517073 3469
Cu 40.2885016404 49.3135223166 15.0185159719 3509
Cu 42.0935129981 47.5085109588 15.0185159719 3908
Cu 42.0935129981 49.3135223166 13.213517073 3949
Cu 43.8985243559 47.5085109588 13.213517073 3910
Cu 43.8985243559 49.3135223166 15.0185159719 3950
Cu 45.7034996011 47.5085109588 15.0185159719 4349
Cu 45.7034996011 49.3135223166 13.213517073 4390
Cu 47.5085109588 47.5085109588 13.213517073 4351
Cu 47.5085109588 49.3135223166 15.0185159719 4391
Cu 49.3135223166 47.5085109588 15.0185159719 4601
Cu 49.3135223166 49.3135223166 13.213517073 4621
Cu 13.213517073 13.213517073 16.8235345521 5
Cu 13.213517073 15.0185159719 18.6285097974 6
Cu 15.0185159719 13.213517073 18.6285097974 7
Cu 15.0185159719 15.0185159719 16.8235345521 8
Cu 16.8235345521 13.213517073 16.8235345521 446
Cu 16.8235345521 15.0185159719 18.6285097974 447
Cu 18.6285097974 13.213517073 18.6285097974 448
Cu 18.6285097974 15.0185159719 16.8235345521 449
Cu 20.4335211551 13.213517073 16.8235345521 887
Cu 20.4335211551 15.0185159719 18.6285097974 888
Cu 22.2385325129 13.213517073 18.6285097974 889
Cu 22.2385325129 15.0185159719 16.8235345521 890
Cu 24.0435077581 13.213517073 16.8235345521 1328
Cu 24.0435077581 15.0185159719 18.6285097974 1329
Cu 25.8485191159 13.213517073 18.6285097974 1330
Cu 25.8485191159 15.0185159719 16.8235345521 1331
Cu 27.6535304736 13.213517073 16.8235345521 1769
Cu 27.6535304736 15.0185159719 18.6285097974 1770
Cu 29.4585057189 13.213517073 18.6285097974 1771
Cu 29.4585057189 15.0185159719 16.8235345521 1772
Cu 31.2635170766 13.213517073 16.8235345521 2210
Cu 31.2635170766 15.0185159719 18.6285097974 2211
Cu 33.0685284344 13.213517073 18.6285097974 2212
Cu 33.0685284344 15.0185159719 16.8235345521 2213
Cu 34.8735036796 13.213517073 16.8235345521 2651
Cu 34.8735036796 15.0185159719 18.6285097974 2652
Cu 36.6785150374 13.213517073 18.6285097974 2653
Cu 36.6785150374 15.0185159719 16.8235345521 2654
Cu 38.4835263951 13.213517073 16.8235345521 3092
Cu 38.4835263951 15.0185159719 18.6285097974 3093
Cu 40.2885016404 13.213517073 18.6285097974 3094
Cu 40.2885016404 15.0185159719 16.8235345521 3095
Cu 42.0935129981 13.213517073 16.8235345521 3533
Cu 42.0935129981 15.0185159719 18.6285097974 3534
Cu 43.8985243559 13.213517073 18.6285097974 3535
Cu 43.8985243559 15.0185159719 16.8235345521 3536
Cu 45.7034996011 13.213517073 16.8235345521 3974
Cu 45.7034996011 15.0185159719 18.6285097974 3975
Cu 47.5085109588 13.213517073 18.6285097974 3976
Cu 47.5085109588 15.0185159719 16.8235345521 3977
Cu 49.3135223166 13.213517073 16.8235345521 4413
Cu 49.3135223166 15.0185159719 18.6285097974 4414
Cu 13.213517073 16.8235345521 16.8235345521 47
Cu 13.213517073 18.6285097974 18.6285097974 48
Cu 15.0185159719 16.8235345521 18.6285097974 49
Cu 15.0185159719 18.6285097974 16.8235345521 50
Cu 16.8235345521 16.8235345521 16.8235345521 488
Cu 16.8235345521 18.6285097974 18.6285097974 489
Cu 18.6285097974 16.8235345521 18.6285097974 490
Cu 18.6285097974 18.6285097974 16.8235345521 491
Cu 20.4335211551 16.8235345521 16.8235345521 929
Cu 20.4335211551 18.6285097974 18.6285097974 930
Cu 22.2385325129 16.8235345521 18.6285097974 931
Cu 22.2385325129 18.6285097974 16.8235345521 932
Cu 24.0435077581 16.8235345521 16.8235345521 1370
Cu 24.0435077581 18.6285097974 18.6285097974 1371
Cu 25.8485191159 16.8235345521 18.6285097974 1372
Cu 25.8485191159 18.6285097974 16.8235345521 1373
Cu 27.6535304736 16.8235345521 16.8235345521 1811
Cu 27.6535304736 18.6285097974 18.6285097974 1812
Cu 29.4585057189 16.8235345521 18.6285097974 1813
Cu 29.4585057189 18.6285097974 16.8235345521 1814
Cu 31.2635170766 16.8235345521 16.8235345521 2252
Cu 31.2635170766 18.6285097974 18.6285097974 2253
Cu 33.0685284344 16.8235345521 18.6285097974 2254
Cu 33.0685284344 18.6285097974 16.8235345521 2255
Cu 34.8735036796 16.8235345521 16.8235345521 2693
Cu 34.8735036796 18.6285097974 18.6285097974 2694
Cu 36.6785150374 16.8235345521 18.6285097974 2695
Cu 36.6785150374 18.6285097974 16.8235345521 2696
Cu 38.4835263951 16.8235345521 16.8235345521 3134
Cu 38.4835263951 18.6285097974 18.6285097974 3135
Cu 40.2885016404 16.8235345521 18.6285097974 3136
Cu 40.2885016404 18.6285097974 16.8235345521 3137
Cu 42.0935129981 16.8235345521 16.8235345521 3575
Cu 42.0935129981 18.6285097974 18.6285097974 3576
Cu 43.8985243559 16.8235345521 18.6285097974 3577
Cu 43.8985243559 18.6285097974 16.8235345521 3578
Cu 45.7034996011 16.8235345521 16.8235345521 4016
Cu 45.7034996011 18.6285097974 18.6285097974 4017
Cu 47.5085109588 16.8235345521 18.6285097974 4018
Cu 47.5085109588 18.6285097974 16.8235345521 4019
Cu 49.3135223166 16.8235345521 16.8235345521 4434
Cu 49.3135223166 18.6285097974 18.6285097974 4435
Cu 13.213517073 20.4335211551 16.8235345521 89
Cu 13.213517073 22.2385325129 18.6285097974 90
Cu 15.0185159719 20.4335211551 18.6285097974 91
Cu 15.0185159719 22.2385325129 16.8235345521 92
Cu 16.8235345521 20.4335211551 16.8235345521 530
Cu 16.8235345521 22.2385325129 18.6285097974 531
Cu 18.6285097974 20.4335211551 18.6285097974 532
Cu 18.6285097974 22.2385325129 16.8235345521 533
Cu 20.4335211551 20.4335211551 16.8235345521 971
Cu 20.4335211551 22.2385325129 18.6285097974 972
Cu 22.2385325129 20.4335211551 18.6285097974 973
Cu 22.2385325129 22.2385325129 16.8235345521 974
Cu 24.0435077581 20.4335211551 16.8235345521 1412
Cu 24.0435077581 22.2385325129 18.6285097974 1413
Cu 25.8485191159 20.4335211551 18.6285097974 1414
Cu 25.8485191159 22.2385325129 16.8235345521 1415
Cu 27.6535304736 20.4335211551 16.8235345521 1853
Cu 27.6535304736 22.2385325129 18.6285097974 1854
Cu 29.4585057189 20.4335211551 18.6285097974 1855
Cu 29.4585057189 22.2385325129 16.8235345521 1856
Cu 31.2635170766 20.4335211551 16.8235345521 2294
Cu 31.2635170766 22.2385325129 18.6285097974 2295
Cu 33.0685284344 20.4335211551 18.6285097974 2296
Cu 33.0685284344 22.2385325129 16.8235345521 2297
Cu 34.8735036796 20.4335211551 16.8235345521 2735
Cu 34.8735036796 22.2385325129 18.6285097974 2736
Cu 36.6785150374 20.4335211551 18.6285097974 2737
Cu 36.6785150374 22.2385325129 16.8235345521 2738
Cu 38.4835263951 20.4335211551 16.8235345521 3176
Cu 38.4835263951 22.2385325129 18.6285097974 3177
Cu 40.2885016404 20.4335211551 18.6285097974 3178
Cu 40.2885016404 22.2385325129 16.8235345521 3179
Cu 42.0935129981 20.4335211551 16.8235345521 3617
Cu 42.0935129981 22.2385325129 18.6285097974 3618
Cu 43.8985243559 20.4335211551 18.6285097974 3619
Cu 43.8985243559 22.2385325129 16.8235345521 3620
Cu 45.7034996011 20.4335211551 16.8235345521 4058
Cu 45.7034996011 22.2385325129 18.6285097974 4059
Cu 47.5085109588 20.4335211551 18.6285097974 4060
Cu 47.5085109588 22.2385325129 16.8235345521 4061
Cu 49.3135223166 20.4335211551 16.8235345521 4455
Cu 49.3135223166 22.2385325129 18.6285097974 4456
Cu 13.213517073 24.0435077581 16.8235345521 131
Cu 13.213517073 25.8485191159 18.6285097974 132
Cu 15.0185159719 24.0435077581 18.6285097974 133
Cu 15.0185159719 25.8485191159 16.8235345521 134
Cu 16.8235345521 24.0435077581 16.8235345521 572
Cu 16.8235345521 25.8485191159 18.6285097974 573
Cu 18.6285097974 24.0435077581 18.6285097974 574
Cu 18.6285097974 25.8485191159 16.8235345521 575
Cu 20.4335211551 24.0435077581 16.8235345521 1013
Cu 20.4335211551 25.8485191159 18.6285097974 1014
Cu 22.2385325129 24.0435077581 18.6285097974 1015
Cu 22.2385325129 25.8485191159 16.8235345521 1016
Cu 24.0435077581 24.0435077581 16.8235345521 1454
Cu 24.0435077581 25.8485191159 18.6285097974 1455
Cu 25.8485191159 24.0435077581 18.6285097974 1456
Cu 25.8485191159 25.8485191159 16.8235345521 1457
Cu 27.6535304736 24.0435077581 16.8235345521 1895
Cu 27.6535304736 25.8485191159 18.6285097974 1896
Cu 29.4585057189 24.0435077581 18.6285097974 1897
Cu 29.4585057189 25.8485191159 16.8235345521 1898
Cu 31.2635170766 24.0435077581 16.8235345521 2336
Cu 31.2635170766 25.8485191159 18.6285097974 2337
Cu 33.0685284344 24.0435077581 18.6285097974 2338
Cu 33.0685284344 25.8485191159 16.8235345521 2339
Cu 34.8735036796 24.0435077581 16.8235345521 2777
Cu 34.8735036796 25.8485191159 18.6285097974 2778
Cu 36.6785150374 24.0435077581 18.6285097974 2779
Cu 36.6785150374 25.8485191159 16.8235345521 2780
Cu 38.4835263951 24.0435077581 16.8235345521 3218
Cu 38.4835263951 25.8485191159 18.6285097974 3219
Cu 40.2885016404 24.0435077581 18.6285097974 3220
Cu 40.2885016404 25.8485191159 16.8235345521 3221
Cu 42.0935129981 24.0435077581 16.8235345521 3659
Cu 42.0935129981 25.8485191159 18.6285097974 3660
Cu 43.8985243559 24.0435077581 18.6285097974 3661
Cu 43.8985243559 25.8485191159 16.8235345521 3662
Cu 45.7034996011 24.0435077581 16.8235345521 4100
Cu 45.7034996011 25.8485191159 18.6285097974 4101
Cu 47.5085109588 24.0435077581 18.6285097974 4102
Cu 47.5085109588 25.8485191159 16.8235345521 4103
Cu 49.3135223166 24.0435077581 16.8235345521 4476
Cu 49.3135223166 25.8485191159 18.6285097974 4477
Cu 13.213517073 27.6535304736 16.8235345521 173
Cu 13.213517073 29.4585057189 18.6285097974 174
Cu 15.0185159719 27.6535304736 18.6285097974 175
Cu 15.0185159719 29.4585057189 16.8235345521 176
Cu 16.8235345521 27.6535304736 16.8235345521 614
Cu 16.8235345521 29.4585057189 18.6285097974 615
Cu 18.6285097974 27.6535304736 18.6285097974 616
Cu 18.6285097974 29.4585057189 16.8235345521 617
Cu 20.4335211551 27.6535304736 16.8235345521 1055
Cu 20.4335211551 29.4585057189 18.6285097974 1056
Cu 22.2385325129 27.6535304736 18.6285097974 1057
Cu 22.2385325129 29.4585057189 16.8235345521 1058
Cu 24.0435077581 27.6535304736 16.8235345521 1496
Cu 24.0435077581 29.4585057189 18.6285097974 1497
Cu 25.8485191159 27.6535304736 18.6285097974 1498
Cu 25.8485191159 29.4585057189 16.8235345521 1499
Cu 27.6535304736 27.6535304736 16.8235345521 1937
Cu 27.6535304736 29.4585057189 18.6285097974 1938
Cu 29.4585057189 27.6535304736 18.6285097974 1939
Cu 29.4585057189 29.4585057189 16.8235345521 1940
Cu 31.2635170766 27.6535304736 16.8235345521 2378
Cu 31.2635170766 29.4585057189 18.6285097974 2379
Cu 33.0685284344 27.6535304736 18.6285097974 2380
Cu 33.0685284344 29.4585057189 16.8235345521 2381
Cu 34.8735036796 27.6535304736 16.8235345521 2819
Cu 34.8735036796 29.4585057189 18.6285097974 2820
Cu 36.6785150374 27.6535304736 18.6285097974 2821
Cu 36.6785150374 29.4585057189 16.8235345521 2822
Cu 38.4835263951 27.6535304736 16.8235345521 3260
Cu 38.4835263951 29.4585057189 18.6285097974 3261
Cu 40.2885016404 27.6535304736 18.6285097974 3262
Cu 40.2885016404 29.4585057189 16.8235345521 3263
Cu 42.0935129981 27.6535304736 16.8235345521 3701
Cu 42.0935129981 29.4585057189 18.6285097974 3702
Cu 43.8985243559 27.6535304736 18.6285097974 3703
Cu 43.8985243559 29.4585057189 16.8235345521 3704
Cu 45.7034996011 27.6535304736 16.8235345521 4142
Cu 45.7034996011 29.4585057189 18.6285097974 4143
Cu 47.5085109588 27.6535304736 18.6285097974 4144
Cu 47.5085109588 29.4585057189 16.8235345521 4145
Cu 49.3135223166 27.6535304736 16.8235345521 4497
Cu 49.3135223166 29.4585057189 18.6285097974 4498
Cu 13.213517073 31.2635170766 16.8235345521 215
Cu 13.213517073 33.0685284344 18.6285097974 216
Cu 15.0185159719 31.2635170766 18.6285097974 217
Cu 15.0185159719 33.0685284344 16.8235345521 218
Cu 13.213517073 34.8735036796 16.8235345521 257
Cu 15.0185159719 34.8735036796 18.6285097974 259
Cu 16.8235345521 31.2635170766 16.8235345521 656
Cu 16.8235345521 33.0685284344 18.6285097974 657
Cu 18.6285097974 31.2635170766 18.6285097974 658
Cu 18.6285097974 33.0685284344 16.8235345521 659
Cu 16.8235345521 34.8735036796 16.8235345521 698
Cu 18.6285097974 34.8735036796 18.6285097974 700
Cu 20.4335211551 31.2635170766 16.8235345521 1097
Cu 20.4335211551 33.0685284344 18.6285097974 1098
Cu 22.2385325129 31.2635170766 18.6285097974 1099
Cu 22.2385325129 33.0685284344 16.8235345521 1100
Cu 20.4335211551 34.8735036796 16.8235345521 1139
Cu 22.2385325129 34.8735036796 18.6285097974 1141
Cu 24.0435077581 31.2635170766 16.8235345521 1538
Cu 24.0435077581 33.0685284344 18.6285097974 1539
Cu 25.8485191159 31.2635170766 18.6285097974 1540
Cu 25.8485191159 33.0685284344 16.8235345521 1541
Cu 24.0435077581 34.8735036796 16.8235345521 1580
Cu 25.8485191159 34.8735036796 18.6285097974 1582
Cu 27.6535304736 31.2635170766 16.8235345521 1979
Cu 27.6535304736 33.0685284344 18.6285097974 1980
Cu 29.4585057189 31.2635170766 18.6285097974 1981
Cu 29.4585057189 33.0685284344 16.8235345521 1982
Cu 27.6535304736 34.8735036796 16.8235345521 2021
Cu 29.4585057189 34.8735036796 18.6285097974 2023
Cu 31.2635170766 31.2635170766 16.8235345521 2420
Cu 31.2635170766 33.0685284344 18.6285097974 2421
Cu 33.0685284344 31.2635170766 18.6285097974 2422
Cu 33.0685284344 33.0685284344 16.8235345521 2423
Cu 31.2635170766 34.8735036796 16.8235345521 2462
Cu 33.0685284344 34.8735036796 18.6285097974 2464
Cu 34.8735036796 31.2635170766 16.8235345521 2861
Cu 34.8735036796 33.0685284344 18.6285097974 2862
Cu 34.8735036796 34.8735036796 16.8235345521 2903
Cu 36.6785150374 31.2635170766 18.6285097974 2863
Cu 36.6785150374 33.0685284344 16.8235345521 2864
Cu 36.6785150374 34.8735036796 18.6285097974 2905
Cu 38.4835263951 31.2635170766 16.8235345521 3302
Cu 38.4835263951 33.0685284344 18.6285097974 3303
Cu 38.4835263951 34.8735036796 16.8235345521 3344
Cu 40.2885016404 31.2635170766 18.6285097974 3304
Cu 40.2885016404 33.0685284344 16.8235345521 3305
Cu 40.2885016404 34.8735036796 18.6285097974 3346
Cu 42.0935129981 31.2635170766 16.8235345521 3743
Cu 42.0935129981 33.0685284344 18.6285097974 3744
Cu 42.0935129981 34.8735036796 16.8235345521 3785
Cu 43.8985243559 31.2635170766 18.6285097974 3745
Cu 43.8985243559 33.0685284344 16.8235345521 3746
Cu 43.8985243559 34.8735036796 18.6285097974 3787
Cu 45.7034996011 31.2635170766 16.8235345521 4184
Cu 45.7034996011 33.0685284344 18.6285097974 4185
Cu 45.7034996011 34.8735036796 16.8235345521 4226
Cu 47.5085109588 31.2635170766 18.6285097974 4186
Cu 47.5085109588 33.0685284344 16.8235345521 4187
Cu 47.5085109588 34.8735036796 18.6285097974 4228
Cu 49.3135223166 31.2635170766 16.8235345521 4518
Cu 49.3135223166 33.0685284344 18.6285097974 4519
Cu 49.3135223166 34.8735036796 16.8235345521 4539
Cu 13.213517073 36.6785150374 18.6285097974 258
Cu 15.0185159719 36.6785150374 16.8235345521 260
Cu 13.213517073 38.4835263951 16.8235345521 299
Cu 15.0185159719 38.4835263951 18.6285097974 301
Cu 16.8235345521 36.6785150374 18.6285097974 699
Cu 18.6285097974 36.6785150374 16.8235345521 701
Cu 16.8235345521 38.4835263951 16.8235345521 740
Cu 18.6285097974 38.4835263951 18.6285097974 742
Cu 20.4335211551 36.6785150374 18.6285097974 1140
Cu 22.2385325129 36.6785150374 16.8235345521 1142
Cu 20.4335211551 38.4835263951 16.8235345521 1181
Cu 22.2385325129 38.4835263951 18.6285097974 1183
Cu 24.0435077581 36.6785150374 18.6285097974 1581
Cu 25.8485191159 36.6785150374 16.8235345521 1583
Cu 24.0435077581 38.4835263951 16.8235345521 1622
Cu 25.8485191159 38.4835263951 18.6285097974 1624
Cu 27.6535304736 36.6785150374 18.6285097974 2022
Cu 29.4585057189 36.6785150374 16.8235345521 2024
Cu 27.6535304736 38.4835263951 16.8235345521 2063
Cu 29.4585057189 38.4835263951 18.6285097974 2065
Cu 31.2635170766 36.6785150374 18.6285097974 2463
Cu 33.0685284344 36.6785150374 16.8235345521 2465
Cu 31.2635170766 38.4835263951 16.8235345521 2504
Cu 33.0685284344 38.4835263951 18.6285097974 2506
Cu 34.8735036796 36.6785150374 18.6285097974 2904
Cu 34.8735036796 38.4835263951 16.8235345521 2945
Cu 36.6785150374 36.6785150374 16.8235345521 2906
Cu 36.6785150374 38.4835263951 18.6285097974 2947
Cu 38.4835263951 36.6785150374 18.6285097974 3345
Cu 38.4835263951 38.4835263951 16.8235345521 3386
Cu 40.2885016404 36.6785150374 16.8235345521 3347
Cu 40.2885016404 38.4835263951 18.6285097974 3388
Cu 42.0935129981 36.6785150374 18.6285097974 3786
Cu 42.0935129981 38.4835263951 16.8235345521 3827
Cu 43.8985243559 36.6785150374 16.8235345521 3788
Cu 43.8985243559 38.4835263951 18.6285097974 3829
Cu 45.7034996011 36.6785150374 18.6285097974 4227
Cu 45.7034996011 38.4835263951 16.8235345521 4268
Cu 47.5085109588 36.6785150374 16.8235345521 4229
Cu 47.5085109588 38.4835263951 18.6285097974 4270
Cu 49.3135223166 36.6785150374 18.6285097974 4540
Cu 49.3135223166 38.4835263951 16.8235345521 4560
Cu 13.213517073 40.2885016404 18.6285097974 300
Cu 15.0185159719 40.2885016404 16.8235345521 302
Cu 13.213517073 42.0935129981 16.8235345521 341
Cu 15.0185159719 42.0935129981 18.6285097974 343
Cu 16.8235345521 40.2885016404 18.6285097974 741
Cu 18.6285097974 40.2885016404 16.8235345521 743
Cu 16.8235345521 42.0935129981 16.8235345521 782
Cu 18.6285097974 42.0935129981 18.6285097974 784
Cu 20.4335211551 40.2885016404 18.6285097974 1182
Cu 22.2385325129 40.2885016404 16.8235345521 1184
Cu 20.4335211551 42.0935129981 16.8235345521 1223
Cu 22.2385325129 42.0935129981 18.6285097974 1225
Cu 24.0435077581 40.2885016404 18.6285097974 1623
Cu 25.8485191159 40.2885016404 16.8235345521 1625
Cu 24.0435077581 42.0935129981 16.8235345521 1664
Cu 25.8485191159 42.0935129981 18.6285097974 1666
Cu 27.6535304736 40.2885016404 18.6285097974 2064
Cu 29.4585057189 40.2885016404 16.8235345521 2066
Cu 27.6535304736 42.0935129981 16.8235345521 2105
Cu 29.4585057189 42.0935129981 18.6285097974 2107
Cu 31.2635170766 40.2885016404 18.6285097974 2505
Cu 33.0685284344 40.2885016404 16.8235345521 2507
Cu 31.2635170766 42.0935129981 16.8235345521 2546
Cu 33.0685284344 42.0935129981 18.6285097974 2548
Cu 34.8735036796 40.2885016404 18.6285097974 2946
Cu 34.8735036796 42.0935129981 16.8235345521 2987
Cu 36.6785150374 40.2885016404 16.8235345521 2948
Cu 36.6785150374 42.0935129981 18.6285097974 2989
Cu 38.4835263951 40.2885016404 18.6285097974 3387
Cu 38.4835263951 42.0935129981 16.8235345521 3428
Cu 40.2885016404 40.2885016404 16.8235345521 3389
Cu 40.2885016404 42.0935129981 18.6285097974 3430
Cu 42.0935129981 40.2885016404 18.6285097974 3828
Cu 42.0935129981 42.0935129981 16.8235345521 3869
Cu 43.8985243559 40.2885016404 16.8235345521 3830
Cu 43.8985243559 42.0935129981 18.6285097974 3871
Cu 45.7034996011 40.2885016404 18.6285097974 4269
Cu 45.7034996011 42.0935129981 16.8235345521 4310
Cu 47.5085109588 40.2885016404 16.8235345521 4271
Cu 47.5085109588 42.0935129981 18.6285097974 4312
Cu 49.3135223166 40.2885016404 18.6285097974 4561
Cu 49.3135223166 42.0935129981 16.8235345521 4581
Cu 13.213517073 43.8985243559 18.6285097974 342
Cu 15.0185159719 43.8985243559 16.8235345521 344
Cu 13.213517073 45.7034996011 16.8235345521 383
Cu 15.0185159719 45.7034996011 18.6285097974 385
Cu 16.8235345521 43.8985243559 18.6285097974 783
Cu 18.6285097974 43.8985243559 16.8235345521 785
Cu 16.8235345521 45.7034996011 16.8235345521 824
Cu 18.6285097974 45.7034996011 18.6285097974 826
Cu 20.4335211551 43.8985243559 18.6285097974 1224
Cu 22.2385325129 43.8985243559 16.8235345521 1226
Cu 20.4335211551 45.7034996011 16.8235345521 1265
Cu 22.2385325129 45.7034996011 18.6285097974 1267
Cu 24.0435077581 43.8985243559 18.6285097974 1665
Cu 25.8485191159 43.8985243559 16.8235345521 1667
Cu 24.0435077581 45.7034996011 16.8235345521 1706
Cu 25.8485191159 45.7034996011 18.6285097974 1708
Cu 27.6535304736 43.8985243559 18.6285097974 2106
Cu 29.4585057189 43.8985243559 16.8235345521 2108
Cu 27.6535304736 45.7034996011 16.8235345521 2147
Cu 29.4585057189 45.7034996011 18.6285097974 2149
Cu 31.2635170766 43.8985243559 18.6285097974 2547
Cu 33.0685284344 43.8985243559 16.8235345521 2549
Cu 31.2635170766 45.7034996011 16.8235345521 2588
Cu 33.0685284344 45.7034996011 18.6285097974 2590
Cu 34.8735036796 43.8985243559 18.6285097974 2988
Cu 34.8735036796 45.7034996011 16.8235345521 3029
Cu 36.6785150374 43.8985243559 16.8235345521 2990
Cu 36.6785150374 45.7034996011 18.6285097974 3031
Cu 38.4835263951 43.8985243559 18.6285097974 3429
Cu 38.4835263951 45.7034996011 16.8235345521 3470
Cu 40.2885016404 43.8985243559 16.8235345521 3431
Cu 40.2885016404 45.7034996011 18.6285097974 3472
Cu 42.0935129981 43.8985243559 18.6285097974 3870
Cu 42.0935129981 45.7034996011 16.8235345521 3911
Cu 43.8985243559 43.8985243559 16.8235345521 3872
Cu 43.8985243559 45.7034996011 18.6285097974 3913
Cu 45.7034996011 43.8985243559 18.6285097974 4311
Cu 45.7034996011 45.7034996011 16.8235345521 4352
Cu 47.5085109588 43.8985243559 16.8235345521 4313
Cu 47.5085109588 45.7034996011 18.6285097974 4354
Cu 49.3135223166 43.8985243559 18.6285097974 4582
Cu 49.3135223166 45.7034996011 16.8235345521 4602
Cu 13.213517073 47.5085109588 18.6285097974 384
Cu 15.0185159719 47.5085109588 16.8235345521 386
Cu 13.213517073 49.3135223166 16.8235345521 423
Cu 15.0185159719 49.3135223166 18.6285097974 424
Cu 16.8235345521 47.5085109588 18.6285097974 825
Cu 18.6285097974 47.5085109588 16.8235345521 827
Cu 16.8235345521 49.3135223166 16.8235345521 864
Cu 18.6285097974 49.3135223166 18.6285097974 865
Cu 20.4335211551 47.5085109588 18.6285097974 1266
Cu 22.2385325129 47.5085109588 16.8235345521 1268
Cu 20.4335211551 49.3135223166 16.8235345521 1305
Cu 22.2385325129 49.3135223166 18.6285097974 1306
Cu 24.0435077581 47.5085109588 18.6285097974 1707
Cu 25.8485191159 47.5085109588 16.8235345521 1709
Cu 24.0435077581 49.3135223166 16.8235345521 1746
Cu 25.8485191159 49.3135223166 18.6285097974 1747
Cu 27.6535304736 47.5085109588 18.6285097974 2148
Cu 29.4585057189 47.5085109588 16.8235345521 2150
Cu 27.6535304736 49.3135223166 16.8235345521 2187
Cu 29.4585057189 49.3135223166 18.6285097974 2188
Cu 31.2635170766 47.5085109588 18.6285097974 2589
Cu 33.0685284344 47.5085109588 16.8235345521 2591
Cu 31.2635170766 49.3135223166 16.8235345521 2628
Cu 33.0685284344 49.3135223166 18.6285097974 2629
Cu 34.8735036796 47.5085109588 18.6285097974 3030
Cu 34.8735036796 49.3135223166 16.8235345521 3069
Cu 36.6785150374 47.5085109588 16.8235345521 3032
Cu 36.6785150374 49.3135223166 18.6285097974 3070
Cu 38.4835263951 47.5085109588 18.6285097974 3471
Cu 38.4835263951 49.3135223166 16.8235345521 3510
Cu 40.2885016404 47.5085109588 16.8235345521 3473
Cu 40.2885016404 49.3135223166 18.6285097974 3511
Cu 42.0935129981 47.5085109588 18.6285097974 3912
Cu 42.0935129981 49.3135223166 16.8235345521 3951
Cu 43.8985243559 47.5085109588 16.8235345521 3914
Cu 43.8985243559 49.3135223166 18.6285097974 3952
Cu 45.7034996011 47.5085109588 18.6285097974 4353
Cu 45.7034996011 49.3135223166 16.8235345521 4392
Cu 47.5085109588 47.5085109588 16.8235345521 4355
Cu 47.5085109588 49.3135223166 18.6285097974 4393
Cu 49.3135223166 47.5085109588 18.6285097974 4603
Cu 49.3135223166 49.3135223166 16.8235345521 4622
Cu 13.213517073 13.213517073 20.4335211551 9
Cu 13.213517073 15.0185159719 22.2385325129 10
Cu 15.0185159719 13.213517073 22.2385325129 11
Cu 15.0185159719 15.0185159719 20.4335211551 12
Cu 16.8235345521 13.213517073 20.4335211551 450
Cu 16.8235345521 15.0185159719 22.2385325129 451
Cu 18.6285097974 13.213517073 22.2385325129 452
Cu 18.6285097974 15.0185159719 20.4335211551 453
Cu 20.4335211551 13.213517073 20.4335211551 891
Cu 20.4335211551 15.0185159719 22.2385325129 892
Cu 22.2385325129 13.213517073 22.2385325129 893
Cu 22.2385325129 15.0185159719 20.4335211551 894
Cu 24.0435077581 13.213517073 20.4335211551 1332
Cu 24.0435077581 15.0185159719 22.2385325129 1333
Cu 25.8485191159 13.213517073 22.2385325129 1334
Cu 25.8485191159 15.0185159719 20.4335211551 1335
Cu 27.6535304736 13.213517073 20.4335211551 1773
Cu 27.6535304736 15.0185159719 22.2385325129 1774
Cu 29.4585057189 13.213517073 22.2385325129 1775
Cu 29.4585057189 15.0185159719 20.4335211551 1776
Cu 31.2635170766 13.213517073 20.4335211551 2214
Cu 31.2635170766 15.0185159719 22.2385325129 2215
Cu 33.0685284344 13.213517073 22.2385325129 2216
Cu 33.0685284344 15.0185159719 20.4335211551 2217
Cu 34.8735036796 13.213517073 20.4335211551 2655
Cu 34.8735036796 15.0185159719 22.2385325129 2656
Cu 36.6785150374 13.213517073 22.2385325129 2657
Cu 36.6785150374 15.0185159719 20.4335211551 2658
Cu 38.4835263951 13.213517073 20.4335211551 3096
Cu 38.4835263951 15.0185159719 22.2385325129 3097
Cu 40.2885016404 13.213517073 22.2385325129 3098
Cu 40.2885016404 15.0185159719 20.4335211551 3099
Cu 42.0935129981 13.213517073 20.4335211551 3537
Cu 42.0935129981 15.0185159719 22.2385325129 3538
Cu 43.8985243559 13.213517073 22.2385325129 3539
Cu 43.8985243559 15.0185159719 20.4335211551 3540
Cu 45.7034996011 13.213517073 20.4335211551 3978
Cu 45.7034996011 15.0185159719 22.2385325129 3979
Cu 47.5085109588 13.213517073 22.2385325129 3980
Cu 47.5085109588 15.0185159719 20.4335211551 3981
Cu 49.3135223166 13.213517073 20.4335211551 4415
Cu 49.3135223166 15.0185159719 22.2385325129 4416
Cu 13.213517073 16.8235345521 20.4335211551 51
Cu 13.213517073 18.6285097974 22.2385325129 52
Cu 15.0185159719 16.8235345521 22.2385325129 53
Cu 15.0185159719 18.6285097974 20.4335211551 54
Cu 16.8235345521 16.8235345521 20.4335211551 492
Cu 16.8235345521 18.6285097974 22.2385325129 493
Cu 18.6285097974 16.8235345521 22.2385325129 494
Cu 18.6285097974 18.6285097974 20.4335211551 495
Cu 20.4335211551 16.8235345521 20.4335211551 933
Cu 20.4335211551 18.6285097974 22.2385325129 934
Cu 22.2385325129 16.8235345521 22.2385325129 935
Cu 22.2385325129 18.6285097974 20.4335211551 936
Cu 24.0435077581 16.8235345521 20.4335211551 1374
Cu 24.0435077581 18.6285097974 22.2385325129 1375
Cu 25.8485191159 16.8235345521 22.2385325129 1376
Cu 25.8485191159 18.6285097974 20.4335211551 1377
Cu 27.6535304736 16.8235345521 20.4335211551 1815
Cu 27.6535304736 18.6285097974 22.2385325129 1816
Cu 29.4585057189 16.8235345521 22.2385325129 1817
Cu 29.4585057189 18.6285097974 20.4335211551 1818
Cu 31.2635170766 16.8235345521 20.4335211551 2256
Cu 31.2635170766 18.6285097974 22.2385325129 2257
Cu 33.0685284344 16.8235345521 22.2385325129 2258
Cu 33.0685284344 18.6285097974 20.4335211551 2259
Cu 34.8735036796 16.8235345521 20.4335211551 2697
Cu 34.8735036796 18.6285097974 22.2385325129 2698
Cu 36.6785150374 16.8235345521 22.2385325129 2699
Cu 36.6785150374 18.6285097974 20.4335211551 2700
Cu 38.4835263951 16.8235345521 20.4335211551 3138
Cu 38.4835263951 18.6285097974 22.2385325129 3139
Cu 40.2885016404 16.8235345521 22.2385325129 3140
Cu 40.2885016404 18.6285097974 20.4335211551 3141
Cu 42.0935129981 16.8235345521 20.4335211551 3579
Cu 42.0935129981 18.6285097974 22.2385325129 3580
Cu 43.8985243559 16.8235345521 22.2385325129 3581
Cu 43.8985243559 18.6285097974 20.4335211551 3582
Cu 45.7034996011 16.8235345521 20.4335211551 4020
Cu 45.7034996011 18.6285097974 22.2385325129 4021
Cu 47.5085109588 16.8235345521 22.2385325129 4022
Cu 47.5085109588 18.6285097974 20.4335211551 4023
Cu 49.3135223166 16.8235345521 20.4335211551 4436
Cu 49.3135223166 18.6285097974 22.2385325129 4437
Cu 13.213517073 20.4335211551 20.4335211551 93
Cu 13.213517073 22.2385325129 22.2385325129 94
Cu 15.0185159719 20.4335211551 22.2385325129 95
Cu 15.0185159719 22.2385325129 20.4335211551 96
Cu 16.8235345521 20.4335211551 20.4335211551 534
Cu 16.8235345521 22.2385325129 22.2385325129 535
Cu 18.6285097974 20.4335211551 22.2385325129 536
Cu 18.6285097974 22.2385325129 20.4335211551 537
Cu 20.4335211551 20.4335211551 20.4335211551 975
Cu 20.4335211551 22.2385325129 22.2385325129 976
Cu 22.2385325129 20.4335211551 22.2385325129 977
Cu 22.2385325129 22.2385325129 20.4335211551 978
Cu 24.0435077581 20.4335211551 20.4335211551 1416
Cu 24.0435077581 22.2385325129 22.2385325129 1417
Cu 25.8485191159 20.4335211551 22.2385325129 1418
Cu 25.8485191159 22.2385325129 20.4335211551 1419
Cu 27.6535304736 20.4335211551 20.4335211551 1857
Cu 27.6535304736 22.2385325129 22.2385325129 1858
Cu 29.4585057189 20.4335211551 22.2385325129 1859
Cu 29.4585057189 22.2385325129 20.4335211551 1860
Cu 31.2635170766 20.4335211551 20.4335211551 2298
Cu 31.2635170766 22.2385325129 22.2385325129 2299
Cu 33.0685284344 20.4335211551 22.2385325129 2300
Cu 33.0685284344 22.2385325129 20.4335211551 2301
Cu 34.8735036796 20.4335211551 20.4335211551 2739
Cu 34.8735036796 22.2385325129 22.2385325129 2740
Cu 36.6785150374 20.4335211551 22.2385325129 2741
Cu 36.6785150374 22.2385325129 20.4335211551 2742
Cu 38.4835263951 20.4335211551 20.4335211551 3180
Cu 38.4835263951 22.2385325129 22.2385325129 3181
Cu 40.2885016404 20.4335211551 22.2385325129 3182
Cu 40.2885016404 22.2385325129 20.4335211551 3183
Cu 42.0935129981 20.4335211551 20.4335211551 3621
Cu 42.0935129981 22.2385325129 22.2385325129 3622
Cu 43.8985243559 20.4335211551 22.2385325129 3623
Cu 43.8985243559 22.2385325129 20.4335211551 3624
Cu 45.7034996011 20.4335211551 20.4335211551 4062
Cu 45.7034996011 22.2385325129 22.2385325129 4063
Cu 47.5085109588 20.4335211551 22.2385325129 4064
Cu 47.5085109588 22.2385325129 20.4335211551 4065
Cu 49.3135223166 20.4335211551 20.4335211551 4457
Cu 49.3135223166 22.2385325129 22.2385325129 4458
Cu 13.213517073 24.0435077581 20.4335211551 135
Cu 13.213517073 25.8485191159 22.2385325129 136
Cu 15.0185159719 24.0435077581 22.2385325129 137
Cu 15.0185159719 25.8485191159 20.4335211551 138
Cu 16.8235345521 24.0435077581 20.4335211551 576
Cu 16.8235345521 25.8485191159 22.2385325129 577
Cu 18.6285097974 24.0435077581 22.2385325129 578
Cu 18.6285097974 25.8485191159 20.4335211551 579
Cu 20.4335211551 24.0435077581 20.4335211551 1017
Cu 20.4335211551 25.8485191159 22.2385325129 1018
Cu 22.2385325129 24.0435077581 22.2385325129 1019
Cu 22.2385325129 25.8485191159 20.4335211551 1020
Cu 24.0435077581 24.0435077581 20.4335211551 1458
Cu 24.0435077581 25.8485191159 22.2385325129 1459
Cu 25.8485191159 24.0435077581 22.2385325129 1460
Cu 25.8485191159 25.8485191159 20.4335211551 1461
Cu 27.6535304736 24.0435077581 20.4335211551 1899
Cu 27.6535304736 25.8485191159 22.2385325129 1900
Cu 29.4585057189 24.0435077581 22.2385325129 1901
Cu 29.4585057189 25.8485191159 20.4335211551 1902
Cu 31.2635170766 24.0435077581 20.4335211551 2340
Cu 31.2635170766 25.8485191159 22.2385325129 2341
Cu 33.0685284344 24.0435077581 22.2385325129 2342
Cu 33.0685284344 25.8485191159 20.4335211551 2343
Cu 34.8735036796 24.0435077581 20.4335211551 2781
Cu 34.8735036796 25.8485191159 22.2385325129 2782
Cu 36.6785150374 24.0435077581 22.2385325129 2783
Cu 36.6785150374 25.8485191159 20.4335211551 2784
Cu 38.4835263951 24.0435077581 20.4335211551 3222
Cu 38.4835263951 25.8485191159 22.2385325129 3223
Cu 40.2885016404 24.0435077581 22.2385325129 3224
Cu 40.2885016404 25.8485191159 20.4335211551 3225
Cu 42.0935129981 24.0435077581 20.4335211551 3663
Cu 42.0935129981 25.8485191159 22.2385325129 3664
Cu 43.8985243559 24.0435077581 22.2385325129 3665
Cu 43.8985243559 25.8485191159 20.4335211551 3666
Cu 45.7034996011 24.0435077581 20.4335211551 4104
Cu 45.7034996011 25.8485191159 22.2385325129 4105
Cu 47.5085109588 24.0435077581 22.2385325129 4106
Cu 47.5085109588 25.8485191159 20.4335211551 4107
Cu 49.3135223166 24.0435077581 20.4335211551 4478
Cu 49.3135223166 25.8485191159 22.2385325129 4479
Cu 13.213517073 27.6535304736 20.4335211551 177
Cu 13.213517073 29.4585057189 22.2385325129 178
Cu 15.0185159719 27.6535304736 22.2385325129 179
Cu 15.0185159719 29.4585057189 20.4335211551 180
Cu 16.8235345521 27.6535304736 20.4335211551 618
Cu 16.8235345521 29.4585057189 22.2385325129 619
Cu 18.6285097974 27.6535304736 22.2385325129 620
Cu 18.6285097974 29.4585057189 20.4335211551 621
Cu 20.4335211551 27.6535304736 20.4335211551 1059
Cu 20.4335211551 29.4585057189 22.2385325129 1060
Cu 22.2385325129 27.6535304736 22.2385325129 1061
Cu 22.2385325129 29.4585057189 20.4335211551 1062
Cu 24.0435077581 27.6535304736 20.4335211551 1500
Cu 24.0435077581 29.4585057189 22.2385325129 1501
Cu 25.8485191159 27.6535304736 22.2385325129 1502
Cu 25.8485191159 29.4585057189 20.4335211551 1503
Cu 27.6535304736 27.6535304736 20.4335211551 1941
Cu 27.6535304736 29.4585057189 22.2385325129 1942
Cu 29.4585057189 27.6535304736 22.2385325129 1943
Cu 29.4585057189 29.4585057189 20.4335211551 1944
Cu 31.2635170766 27.6535304736 20.4335211551 2382
Cu 31.2635170766 29.4585057189 22.2385325129 2383
Cu 33.0685284344 27.6535304736 22.2385325129 2384
Cu 33.0685284344 29.4585057189 20.4335211551 2385
Cu 34.8735036796 27.6535304736 20.4335211551 2823
Cu 34.8735036796 29.4585057189 22.2385325129 2824
Cu 36.6785150374 27.6535304736 22.2385325129 2825
Cu 36.6785150374 29.4585057189 20.4335211551 2826
Cu 38.4835263951 27.6535304736 20.4335211551 3264
Cu 38.4835263951 29.4585057189 22.2385325129 3265
Cu 40.2885016404 27.6535304736 22.2385325129 3266
Cu 40.2885016404 29.4585057189 20.4335211551 3267
Cu 42.0935129981 27.6535304736 20.4335211551 3705
Cu 42.0935129981 29.4585057189 22.2385325129 3706
Cu 43.8985243559 27.6535304736 22.2385325129 3707
Cu 43.8985243559 29.4585057189 20.4335211551 3708
Cu 45.7034996011 27.6535304736 20.4335211551 4146
Cu 45.7034996011 29.4585057189 22.2385325129 4147
Cu 47.5085109588 27.6535304736 22.2385325129 4148
Cu 47.5085109588 29.4585057189 20.4335211551 4149
Cu 49.3135223166 27.6535304736 20.4335211551 4499
Cu 49.3135223166 29.4585057189 22.2385325129 4500
Cu 13.213517073 31.2635170766 20.4335211551 219
Cu 13.213517073 33.0685284344 22.2385325129 220
Cu 15.0185159719 31.2635170766 22.2385325129 221
Cu 15.0185159719 33.0685284344 20.4335211551 222
Cu 13.213517073 34.8735036796 20.4335211551 261
Cu 15.0185159719 34.8735036796 22.2385325129 263
Cu 16.8235345521 31.2635170766 20.4335211551 660
Cu 16.8235345521 33.0685284344 22.2385325129 661
Cu 18.6285097974 31.2635170766 22.2385325129 662
Cu 18.6285097974 33.0685284344 20.4335211551 663
Cu 16.8235345521 34.8735036796 20.4335211551 702
Cu 18.6285097974 34.8735036796 22.2385325129 704
Cu 20.4335211551 31.2635170766 20.4335211551 1101
Cu 20.4335211551 33.0685284344 22.2385325129 1102
Cu 22.2385325129 31.2635170766 22.2385325129 1103
Cu 22.2385325129 33.0685284344 20.4335211551 1104
Cu 20.4335211551 34.8735036796 20.4335211551 1143
Cu 22.2385325129 34.8735036796 22.2385325129 1145
Cu 24.0435077581 31.2635170766 20.4335211551 1542
Cu 24.0435077581 33.0685284344 22.2385325129 1543
Cu 25.8485191159 31.2635170766 22.2385325129 1544
Cu 25.8485191159 33.0685284344 20.4335211551 1545
Cu 24.0435077581 34.8735036796 20.4335211551 1584
Cu 25.8485191159 34.8735036796 22.2385325129 1586
Cu 27.6535304736 31.2635170766 20.4335211551 1983
Cu 27.6535304736 33.0685284344 22.2385325129 1984
Cu 29.4585057189 31.2635170766 22.2385325129 1985
Cu 29.4585057189 33.0685284344 20.4335211551 1986
Cu 27.6535304736 34.8735036796 20.4335211551 2025
Cu 29.4585057189 34.8735036796 22.2385325129 2027
Cu 31.2635170766 31.2635170766 20.4335211551 2424
Cu 31.2635170766 33.0685284344 22.2385325129 2425
Cu 33.0685284344 31.2635170766 22.2385325129 2426
Cu 33.0685284344 33.0685284344 20.4335211551 2427
Cu 31.2635170766 34.8735036796 20.4335211551 2466
Cu 33.0685284344 34.8735036796 22.2385325129 2468
Cu 34.8735036796 31.2635170766 20.4335211551 2865
Cu 34.8735036796 33.0685284344 22.2385325129 2866
Cu 34.8735036796 34.8735036796 20.4335211551 2907
Cu 36.6785150374 31.2635170766 22.2385325129 2867
Cu 36.6785150374 33.0685284344 20.4335211551 2868
Cu 36.6785150374 34.8735036796 22.2385325129 2909
Cu 38.4835263951 31.2635170766 20.4335211551 3306
Cu 38.4835263951 33.0685284344 22.2385325129 3307
Cu 38.4835263951 34.8735036796 20.4335211551 3348
Cu 40.2885016404 31.2635170766 22.2385325129 3308
Cu 40.2885016404 33.0685284344 20.4335211551 3309
Cu 40.2885016404 34.8735036796 22.2385325129 3350
Cu 42.0935129981 31.2635170766 20.4335211551 3747
Cu 42.0935129981 33.0685284344 22.2385325129 3748
Cu 42.0935129981 34.8735036796 20.4335211551 3789
Cu 43.8985243559 31.2635170766 22.2385325129 3749
Cu 43.8985243559 33.0685284344 20.4335211551 3750
Cu 43.8985243559 34.8735036796 22.2385325129 3791
Cu 45.7034996011 31.2635170766 20.4335211551 4188
Cu 45.7034996011 33.0685284344 22.2385325129 4189
Cu 45.7034996011 34.8735036796 20.4335211551 4230
Cu 47.5085109588 31.2635170766 22.2385325129 4190
Cu 47.5085109588 33.0685284344 20.4335211551 4191
Cu 47.5085109588 34.8735036796 22.2385325129 4232
Cu 49.3135223166 31.2635170766 20.4335211551 4520
Cu 49.3135223166 33.0685284344 22.2385325129 4521
Cu 49.3135223166 34.8735036796 20.4335211551 4541
Cu 13.213517073 36.6785150374 22.2385325129 262
Cu 15.0185159719 36.6785150374 20.4335211551 264
Cu 13.213517073 38.4835263951 20.4335211551 303
Cu 15.0185159719 38.4835263951 22.2385325129 305
Cu 16.8235345521 36.6785150374 22.2385325129 703
Cu 18.6285097974 36.6785150374 20.4335211551 705
Cu 16.8235345521 38.4835263951 20.4335211551 744
Cu 18.6285097974 38.4835263951 22.2385325129 746
Cu 20.4335211551 36.6785150374 22.2385325129 1144
Cu 22.2385325129 36.6785150374 20.4335211551 1146
Cu 20.4335211551 38.4835263951 20.4335211551 1185
Cu 22.2385325129 38.4835263951 22.2385325129 1187
Cu 24.0435077581 36.6785150374 22.2385325129 1585
Cu 25.8485191159 36.6785150374 20.4335211551 1587
Cu 24.0435077581 38.4835263951 20.4335211551 1626
Cu 25.8485191159 38.4835263951 22.2385325129 1628
Cu 27.6535304736 36.6785150374 22.2385325129 2026
Cu 29.4585057189 36.6785150374 20.4335211551 2028
Cu 27.6535304736 38.4835263951 20.4335211551 2067
Cu 29.4585057189 38.4835263951 22.2385325129 2069
Cu 31.2635170766 36.6785150374 22.2385325129 2467
Cu 33.0685284344 36.6785150374 20.4335211551 2469
Cu 31.2635170766 38.4835263951 20.4335211551 2508
Cu 33.0685284344 38.4835263951 22.2385325129 2510
Cu 34.8735036796 36.6785150374 22.2385325129 2908
Cu 34.8735036796 38.4835263951 20.4335211551 2949
Cu 36.6785150374 36.6785150374 20.4335211551 2910
Cu 36.6785150374 38.4835263951 22.2385325129 2951
Cu 38.4835263951 36.6785150374 22.2385325129 3349
Cu 38.4835263951 38.4835263951 20.4335211551 3390
Cu 40.2885016404 36.6785150374 20.4335211551 3351
Cu 40.2885016404 38.4835263951 22.2385325129 3392
Cu 42.0935129981 36.6785150374 22.2385325129 3790
Cu 42.0935129981 38.4835263951 20.4335211551 3831
Cu 43.8985243559 36.6785150374 20.4335211551 3792
Cu 43.8985243559 38.4835263951 22.2385325129 3833
Cu 45.7034996011 36.6785150374 22.2385325129 4231
Cu 45.7034996011 38.4835263951 20.4335211551 4272
Cu 47.5085109588 36.6785150374 20.4335211551 4233
Cu 47.5085109588 38.4835263951 22.2385325129 4274
Cu 49.3135223166 36.6785150374 22.2385325129 4542
Cu 49.3135223166 38.4835263951 20.4335211551 4562
Cu 13.213517073 40.2885016404 22.2385325129 304
Cu 15.0185159719 40.2885016404 20.4335211551 306
Cu 13.213517073 42.0935129981 20.4335211551 345
Cu 15.0185159719 42.0935129981 22.2385325129 347
Cu 16.8235345521 40.2885016404 22.2385325129 745
Cu 18.6285097974 40.2885016404 20.4335211551 747
Cu 16.8235345521 42.0935129981 20.4335211551 786
Cu 18.6285097974 42.0935129981 22.2385325129 788
Cu 20.4335211551 40.2885016404 22.2385325129 1186
Cu 22.2385325129 40.2885016404 20.4335211551 1188
Cu 20.4335211551 42.0935129981 20.4335211551 1227
Cu 22.2385325129 42.0935129981 22.2385325129 1229
Cu 24.0435077581 40.2885016404 22.2385325129 1627
Cu 25.8485191159 40.2885016404 20.4335211551 1629
Cu 24.0435077581 42.0935129981 20.4335211551 1668
Cu 25.8485191159 42.0935129981 22.2385325129 1670
Cu 27.6535304736 40.2885016404 22.2385325129 2068
Cu 29.4585057189 40.2885016404 20.4335211551 2070
Cu 27.6535304736 42.0935129981 20.4335211551 2109
Cu 29.4585057189 42.0935129981 22.2385325129 2111
Cu 31.2635170766 40.2885016404 22.2385325129 2509
Cu 33.0685284344 40.2885016404 20.4335211551 2511
Cu 31.2635170766 42.0935129981 20.4335211551 2550
Cu 33.0685284344 42.0935129981 22.2385325129 2552
Cu 34.8735036796 40.2885016404 22.2385325129 2950
Cu 34.8735036796 42.0935129981 20.4335211551 2991
Cu 36.6785150374 40.2885016404 20.4335211551 2952
Cu 36.6785150374 42.0935129981 22.2385325129 2993
Cu 38.4835263951 40.2885016404 22.2385325129 3391
Cu 38.4835263951 42.0935129981 20.4335211551 3432
Cu 40.2885016404 40.2885016404 20.4335211551 3393
Cu 40.2885016404 42.0935129981 22.2385325129 3434
Cu 42.0935129981 40.2885016404 22.2385325129 3832
Cu 42.0935129981 42.0935129981 20.4335211551 3873
Cu 43.8985243559 40.2885016404 20.4335211551 3834
Cu 43.8985243559 42.0935129981 22.2385325129 3875
Cu 45.7034996011 40.2885016404 22.2385325129 4273
Cu 45.7034996011 42.0935129981 20.4335211551 4314
Cu 47.5085109588 40.2885016404 20.4335211551 4275
Cu 47.5085109588 42.0935129981 22.2385325129 4316
Cu 49.3135223166 40.2885016404 22.2385325129 4563
Cu 49.3135223166 42.0935129981 20.4335211551 4583
Cu 13.213517073 43.8985243559 22.2385325129 346
Cu 15.0185159719 43.8985243559 20.4335211551 348
Cu 13.213517073 45.7034996011 20.4335211551 387
Cu 15.0185159719 45.7034996011 22.2385325129 389
Cu 16.8235345521 43.8985243559 22.2385325129 787
Cu 18.6285097974 43.8985243559 20.4335211551 789
Cu 16.8235345521 45.7034996011 20.4335211551 828
Cu 18.6285097974 45.7034996011 22.2385325129 830
Cu 20.4335211551 43.8985243559 22.2385325129 1228
Cu 22.2385325129 43.8985243559 20.4335211551 1230
Cu 20.4335211551 45.7034996011 20.4335211551 1269
Cu 22.2385325129 45.7034996011 22.2385325129 1271
Cu 24.0435077581 43.8985243559 22.2385325129 1669
Cu 25.8485191159 43.8985243559 20.4335211551 1671
Cu 24.0435077581 45.7034996011 20.4335211551 1710
Cu 25.8485191159 45.7034996011 22.2385325129 1712
Cu 27.6535304736 43.8985243559 22.2385325129 2110
Cu 29.4585057189 43.8985243559 20.4335211551 2112
Cu 27.6535304736 45.7034996011 20.4335211551 2151
Cu 29.4585057189 45.7034996011 22.2385325129 2153
Cu 31.2635170766 43.8985243559 22.2385325129 2551
Cu 33.0685284344 43.8985243559 20.4335211551 2553
Cu 31.2635170766 45.7034996011 20.4335211551 2592
Cu 33.0685284344 45.7034996011 22.2385325129 2594
Cu 34.8735036796 43.8985243559 22.2385325129 2992
Cu 34.8735036796 45.7034996011 20.4335211551 3033
Cu 36.6785150374 43.8985243559 20.4335211551 2994
Cu 36.6785150374 45.7034996011 22.2385325129 3035
Cu 38.4835263951 43.8985243559 22.2385325129 3433
Cu 38.4835263951 45.7034996011 20.4335211551 3474
Cu 40.2885016404 43.8985243559 20.4335211551 3435
Cu 40.2885016404 45.7034996011 22.2385325129 3476
Cu 42.0935129981 43.8985243559 22.2385325129 3874
Cu 42.0935129981 45.7034996011 20.4335211551 3915
Cu 43.8985243559 43.8985243559 20.4335211551 3876
Cu 43.8985243559 45.7034996011 22.2385325129 3917
Cu 45.7034996011 43.8985243559 22.2385325129 4315
Cu 45.7034996011 45.7034996011 20.4335211551 4356
Cu 47.5085109588 43.8985243559 20.4335211551 4317
Cu 47.5085109588 45.7034996011 22.2385325129 4358
Cu 49.3135223166 43.8985243559 22.2385325129 4584
Cu 49.3135223166 45.7034996011 20.4335211551 4604
Cu 13.213517073 47.5085109588 22.2385325129 388
Cu 15.0185159719 47.5085109588 20.4335211551 390
Cu 13.213517073 49.3135223166 20.4335211551 425
Cu 15.0185159719 49.3135223166 22.2385325129 426
Cu 16.8235345521 47.5085109588 22.2385325129 829
Cu 18.6285097974 47.5085109588 20.4335211551 831
Cu 16.8235345521 49.3135223166 20.4335211551 866
Cu 18.6285097974 49.3135223166 22.2385325129 867
Cu 20.4335211551 47.5085109588 22.2385325129 1270
Cu 22.2385325129 47.5085109588 20.4335211551 1272
Cu 20.4335211551 49.3135223166 20.4335211551 1307
Cu 22.2385325129 49.3135223166 22.2385325129 1308
Cu 24.0435077581 47.5085109588 22.2385325129 1711
Cu 25.8485191159 47.5085109588 20.4335211551 1713
Cu 24.0435077581 49.3135223166 20.4335211551 1748
Cu 25.8485191159 49.3135223166 22.2385325129 1749
Cu 27.6535304736 47.5085109588 22.2385325129 2152
Cu 29.4585057189 47.5085109588 20.4335211551 2154
Cu 27.6535304736 49.3135223166 20.4335211551 2189
Cu 29.4585057189 49.3135223166 22.2385325129 2190
Cu 31.2635170766 47.5085109588 22.2385325129 2593
Cu 33.0685284344 47.5085109588 20.4335211551 2595
Cu 31.2635170766 49.3135223166 20.4335211551 2630
Cu 33.0685284344 49.3135223166 22.2385325129 2631
Cu 34.8735036796 47.5085109588 22.2385325129 3034
Cu 34.8735036796 49.3135223166 20.4335211551 3071
Cu 36.6785150374 47.5085109588 20.4335211551 3036
Cu 36.6785150374 49.3135223166 22.2385325129 3072
Cu 38.4835263951 47.5085109588 22.2385325129 3475
Cu 38.4835263951 49.3135223166 20.4335211551 3512
Cu 40.2885016404 47.5085109588 20.4335211551 3477
Cu 40.2885016404 49.3135223166 22.2385325129 3513
Cu 42.0935129981 47.5085109588 22.2385325129 3916
Cu 42.0935129981 49.3135223166 20.4335211551 3953
Cu 43.8985243559 47.5085109588 20.4335211551 3918
Cu 43.8985243559 49.3135223166 22.2385325129 3954
Cu 45.7034996011 47.5085109588 22.2385325129 4357
Cu 45.7034996011 49.3135223166 20.4335211551 4394
Cu 47.5085109588 47.5085109588 20.4335211551 4359
Cu 47.5085109588 49.3135223166 22.2385325129 4395
Cu 49.3135223166 47.5085109588 22.2385325129 4605
Cu 49.3135223166 49.3135223166 20.4335211551 4623
Cu 13.213517073 13.213517073 24.0435077581 13
Cu 13.213517073 15.0185159719 25.8485191159 14
Cu 15.0185159719 13.213517073 25.8485191159 15
Cu 15.0185159719 15.0185159719 24.0435077581 16
Cu 16.8235345521 13.213517073 24.0435077581 454
Cu 16.8235345521 15.0185159719 25.8485191159 455
Cu 18.6285097974 13.213517073 25.8485191159 456
Cu 18.6285097974 15.0185159719 24.0435077581 457
Cu 20.4335211551 13.213517073 24.0435077581 895
Cu 20.4335211551 15.0185159719 25.8485191159 896
Cu 22.2385325129 13.213517073 25.8485191159 897
Cu 22.2385325129 15.0185159719 24.0435077581 898
Cu 24.0435077581 13.213517073 24.0435077581 1336
Cu 24.0435077581 15.0185159719 25.8485191159 1337
Cu 25.8485191159 13.213517073 25.8485191159 1338
Cu 25.8485191159 15.0185159719 24.0435077581 1339
Cu 27.6535304736 13.213517073 24.0435077581 1777
Cu 27.6535304736 15.0185159719 25.8485191159 1778
Cu 29.4585057189 13.213517073 25.8485191159 1779
Cu 29.4585057189 15.0185159719 24.0435077581 1780
Cu 31.2635170766 13.213517073 24.0435077581 2218
Cu 31.2635170766 15.0185159719 25.8485191159 2219
Cu 33.0685284344 13.213517073 25.8485191159 2220
Cu 33.0685284344 15.0185159719 24.0435077581 2221
Cu 34.8735036796 13.213517073 24.0435077581 2659
Cu 34.8735036796 15.0185159719 25.8485191159 2660
Cu 36.6785150374 13.213517073 25.8485191159 2661
Cu 36.6785150374 15.0185159719 24.0435077581 2662
Cu 38.4835263951 13.213517073 24.0435077581 3100
Cu 38.4835263951 15.0185159719 25.8485191159 3101
Cu 40.2885016404 13.213517073 25.8485191159 3102
Cu 40.2885016404 15.0185159719 24.0435077581 3103
Cu 42.0935129981 13.213517073 24.0435077581 3541
Cu 42.0935129981 15.0185159719 25.8485191159 3542
Cu 43.8985243559 13.213517073 25.8485191159 3543
Cu 43.8985243559 15.0185159719 24.0435077581 3544
Cu 45.7034996011 13.213517073 24.0435077581 3982
Cu 45.7034996011 15.0185159719 25.8485191159 3983
Cu 47.5085109588 13.213517073 25.8485191159 3984
Cu 47.5085109588 15.0185159719 24.0435077581 3985
Cu 49.3135223166 13.213517073 24.0435077581 4417
Cu 49.3135223166 15.0185159719 25.8485191159 4418
Cu 13.213517073 16.8235345521 24.0435077581 55
Cu 13.213517073 18.6285097974 25.8485191159 56
Cu 15.0185159719 16.8235345521 25.8485191159 57
Cu 15.0185159719 18.6285097974 24.0435077581 58
Cu 16.8235345521 16.8235345521 24.0435077581 496
Cu 16.8235345521 18.6285097974 25.8485191159 497
Cu 18.6285097974 16.8235345521 25.8485191159 498
Cu 18.6285097974 18.6285097974 24.0435077581 499
Cu 20.4335211551 16.8235345521 24.0435077581 937
Cu 20.4335211551 18.6285097974 25.8485191159 938
Cu 22.2385325129 16.8235345521 25.8485191159 939
Cu 22.2385325129 18.6285097974 24.0435077581 940
Cu 24.0435077581 16.8235345521 24.0435077581 1378
Cu 24.0435077581 18.6285097974 25.8485191159 1379
Cu 25.8485191159 16.8235345521 25.8485191159 1380
Cu 25.8485191159 18.6285097974 24.0435077581 1381
Cu 27.6535304736 16.8235345521 24.0435077581 1819
Cu 27.6535304736 18.6285097974 25.8485191159 1820
Cu 29.4585057189 16.8235345521 25.8485191159 1821
Cu 29.4585057189 18.6285097974 24.0435077581 1822
Cu 31.2635170766 16.8235345521 24.0435077581 2260
Cu 31.2635170766 18.6285097974 25.8485191159 2261
Cu 33.0685284344 16.8235345521 25.8485191159 2262
Cu 33.0685284344 18.6285097974 24.0435077581 2263
Cu 34.8735036796 16.8235345521 24.0435077581 2701
Cu 34.8735036796 18.6285097974 25.8485191159 2702
Cu 36.6785150374 16.8235345521 25.8485191159 2703
Cu 36.6785150374 18.6285097974 24.0435077581 2704
Cu 38.4835263951 16.8235345521 24.0435077581 3142
Cu 38.4835263951 18.6285097974 25.8485191159 3143
Cu 40.2885016404 16.8235345521 25.8485191159 3144
Cu 40.2885016404 18.6285097974 24.0435077581 3145
Cu 42.0935129981 16.8235345521 24.0435077581 3583
Cu 42.0935129981 18.6285097974 25.8485191159 3584
Cu 43.8985243559 16.8235345521 25.8485191159 3585
Cu 43.8985243559 18.6285097974 24.0435077581 3586
Cu 45.7034996011 16.8235345521 24.0435077581 4024
Cu 45.7034996011 18.6285097974 25.8485191159 4025
Cu 47.5085109588 16.8235345521 25.8485191159 4026
Cu 47.5085109588 18.6285097974 24.0435077581 4027
Cu 49.3135223166 16.8235345521 24.0435077581 4438
Cu 49.3135223166 18.6285097974 25.8485191159 4439
Cu 13.213517073 20.4335211551 24.0435077581 97
Cu 13.213517073 22.2385325129 25.8485191159 98
Cu 15.0185159719 20.4335211551 25.8485191159 99
Cu 15.0185159719 22.2385325129 24.0435077581 100
Cu 16.8235345521 20.4335211551 24.0435077581 538
Cu 16.8235345521 22.2385325129 25.8485191159 539
Cu 18.6285097974 20.4335211551 25.8485191159 540
Cu 18.6285097974 22.2385325129 24.0435077581 541
Cu 20.4335211551 20.4335211551 24.0435077581 979
Cu 20.4335211551 22.2385325129 25.8485191159 980
Cu 22.2385325129 20.4335211551 25.8485191159 981
Cu 22.2385325129 22.2385325129 24.0435077581 982
Cu 24.0435077581 20.4335211551 24.0435077581 1420
Cu 24.0435077581 22.2385325129 25.8485191159 1421
Cu 25.8485191159 20.4335211551 25.8485191159 1422
Cu 25.8485191159 22.2385325129 24.0435077581 1423
Cu 27.6535304736 20.4335211551 24.0435077581 1861
Cu 27.6535304736 22.2385325129 25.8485191159 1862
Cu 29.4585057189 20.4335211551 25.8485191159 1863
Cu 29.4585057189 22.2385325129 24.0435077581 1864
Cu 31.2635170766 20.4335211551 24.0435077581 2302
Cu 31.2635170766 22.2385325129 25.8485191159 2303
Cu 33.0685284344 20.4335211551 25.8485191159 2304
Cu 33.0685284344 22.2385325129 24.0435077581 2305
Cu 34.8735036796 20.4335211551 24.0435077581 2743
Cu 34.8735036796 22.2385325129 25.8485191159 2744
Cu 36.6785150374 20.4335211551 25.8485191159 2745
Cu 36.6785150374 22.2385325129 24.0435077581 2746
Cu 38.4835263951 20.4335211551 24.0435077581 3184
Cu 38.4835263951 22.2385325129 25.8485191159 3185
Cu 40.2885016404 20.4335211551 25.8485191159 3186
Cu 40.2885016404 22.2385325129 24.0435077581 3187
Cu 42.0935129981 20.4335211551 24.0435077581 3625
Cu 42.0935129981 22.2385325129 25.8485191159 3626
Cu 43.8985243559 20.4335211551 25.8485191159 3627
Cu 43.8985243559 22.2385325129 24.0435077581 3628
Cu 45.7034996011 20.4335211551 24.0435077581 4066
Cu 45.7034996011 22.2385325129 25.8485191159 4067
Cu 47.5085109588 20.4335211551 25.8485191159 4068
Cu 47.5085109588 22.2385325129 24.0435077581 4069
Cu 49.3135223166 20.4335211551 24.0435077581 4459
Cu 49.3135223166 22.2385325129 25.8485191159 4460
Cu 13.213517073 24.0435077581 24.0435077581 139
Cu 13.213517073 25.8485191159 25.8485191159 140
Cu 15.0185159719 24.0435077581 25.8485191159 141
Cu 15.0185159719 25.8485191159 24.0435077581 142
Cu 16.8235345521 24.0435077581 24.0435077581 580
Cu 16.8235345521 25.8485191159 25.8485191159 581
Cu 18.6285097974 24.0435077581 25.8485191159 582
Cu 18.6285097974 25.8485191159 24.0435077581 583
Cu 20.4335211551 24.0435077581 24.0435077581 1021
Cu 20.4335211551 25.8485191159 25.8485191159 1022
Cu 22.2385325129 24.0435077581 25.8485191159 1023
Cu 22.2385325129 25.8485191159 24.0435077581 1024
Cu 24.0435077581 24.0435077581 24.0435077581 1462
Cu 24.0435077581 25.8485191159 25.8485191159 1463
Cu 25.8485191159 24.0435077581 25.8485191159 1464
Cu 25.8485191159 25.8485191159 24.0435077581 1465
Cu 27.6535304736 24.0435077581 24.0435077581 1903
Cu 27.6535304736 25.8485191159 25.8485191159 1904
Cu 29.4585057189 24.0435077581 25.8485191159 1905
Cu 29.4585057189 25.8485191159 24.0435077581 1906
Cu 31.2635170766 24.0435077581 24.0435077581 2344
Cu 31.2635170766 25.8485191159 25.8485191159 2345
Cu 33.0685284344 24.0435077581 25.8485191159 2346
Cu 33.0685284344 25.8485191159 24.0435077581 2347
Cu 34.8735036796 24.0435077581 24.0435077581 2785
Cu 34.8735036796 25.8485191159 25.8485191159 2786
Cu 36.6785150374 24.0435077581 25.8485191159 2787
Cu 36.6785150374 25.8485191159 24.0435077581 2788
Cu 38.4835263951 24.0435077581 24.0435077581 3226
Cu 38.4835263951 25.8485191159 25.8485191159 3227
Cu 40.2885016404 24.0435077581 25.8485191159 3228
Cu 40.2885016404 25.8485191159 24.0435077581 3229
Cu 42.0935129981 24.0435077581 24.0435077581 3667
Cu 42.0935129981 25.8485191159 25.8485191159 3668
Cu 43.8985243559 24.0435077581 25.8485191159 3669
Cu 43.8985243559 25.8485191159 24.0435077581 3670
Cu 45.7034996011 24.0435077581 24.0435077581 4108
Cu 45.7034996011 25.8485191159 25.8485191159 4109
Cu 47.5085109588 24.0435077581 25.8485191159 4110
Cu 47.5085109588 25.8485191159 24.0435077581 4111
Cu 49.3135223166 24.0435077581 24.0435077581 4480
Cu 49.3135223166 25.8485191159 25.8485191159 4481
Cu 13.213517073 27.6535304736 24.0435077581 181
Cu 13.213517073 29.4585057189 25.8485191159 182
Cu 15.0185159719 27.6535304736 25.8485191159 183
Cu 15.0185159719 29.4585057189 24.0435077581 184
Cu 16.8235345521 27.6535304736 24.0435077581 622
Cu 16.8235345521 29.4585057189 25.8485191159 623
Cu 18.6285097974 27.6535304736 25.8485191159 624
Cu 18.6285097974 29.4585057189 24.0435077581 625
Cu 20.4335211551 27.6535304736 24.0435077581 1063
Cu 20.4335211551 29.4585057189 25.8485191159 1064
Cu 22.2385325129 27.6535304736 25.8485191159 1065
Cu 22.2385325129 29.4585057189 24.0435077581 1066
Cu 24.0435077581 27.6535304736 24.0435077581 1504
Cu 24.0435077581 29.4585057189 25.8485191159 1505
Cu 25.8485191159 27.6535304736 25.8485191159 1506
Cu 25.8485191159 29.4585057189 24.0435077581 1507
Cu 27.6535304736 27.6535304736 24.0435077581 1945
Cu 27.6535304736 29.4585057189 25.8485191159 1946
Cu 29.4585057189 27.6535304736 25.8485191159 1947
Cu 29.4585057189 29.4585057189 24.0435077581 1948
Cu 31.2635170766 27.6535304736 24.0435077581 2386
Cu 31.2635170766 29.4585057189 25.8485191159 2387
Cu 33.0685284344 27.6535304736 25.8485191159 2388
Cu 33.0685284344 29.4585057189 24.0435077581 2389
Cu 34.8735036796 27.6535304736 24.0435077581 2827
Cu 34.8735036796 29.4585057189 25.8485191159 2828
Cu 36.6785150374 27.6535304736 25.8485191159 2829
Cu 36.6785150374 29.4585057189 24.0435077581 2830
Cu 38.4835263951 27.6535304736 24.0435077581 3268
Cu 38.4835263951 29.4585057189 25.8485191159 3269
Cu 40.2885016404 27.6535304736 25.8485191159 3270
Cu 40.2885016404 29.4585057189 24.0435077581 3271
Cu 42.0935129981 27.6535304736 24.0435077581 3709
Cu 42.0935129981 29.4585057189 25.8485191159 3710
Cu 43.8985243559 27.6535304736 25.8485191159 3711
Cu 43.8985243559 29.4585057189 24.0435077581 3712
Cu 45.7034996011 27.6535304736 24.0435077581 4150
Cu 45.7034996011 29.4585057189 25.8485191159 4151
Cu 47.5085109588 27.6535304736 25.8485191159 4152
Cu 47.5085109588 29.4585057189 24.0435077581 4153
Cu 49.3135223166 27.6535304736 24.0435077581 4501
Cu 49.3135223166 29.4585057189 25.8485191159 4502
Cu 13.213517073 31.2635170766 24.0435077581 223
Cu 13.213517073 33.0685284344 25.8485191159 224
Cu 15.0185159719 31.2635170766 25.8485191159 225
Cu 15.0185159719 33.0685284344 24.0435077581 226
Cu 13.213517073 34.8735036796 24.0435077581 265
Cu 15.0185159719 34.8735036796 25.8485191159 267
Cu 16.8235345521 31.2635170766 24.0435077581 664
Cu 16.8235345521 33.0685284344 25.8485191159 665
Cu 18.6285097974 31.2635170766 25.8485191159 666
Cu 18.6285097974 33.0685284344 24.0435077581 667
Cu 16.8235345521 34.8735036796 24.0435077581 706
Cu 18.6285097974 34.8735036796 25.8485191159 708
Cu 20.4335211551 31.2635170766 24.0435077581 1105
Cu 20.4335211551 33.0685284344 25.8485191159 1106
Cu 22.2385325129 31.2635170766 25.8485191159 1107
Cu 22.2385325129 33.0685284344 24.0435077581 1108
Cu 20.4335211551 34.8735036796 24.0435077581 1147
Cu 22.2385325129 34.8735036796 25.8485191159 1149
Cu 24.0435077581 31.2635170766 24.0435077581 1546
Cu 24.0435077581 33.0685284344 25.8485191159 1547
Cu 25.8485191159 31.2635170766 25.8485191159 1548
Cu 25.8485191159 33.0685284344 24.0435077581 1549
Cu 24.0435077581 34.8735036796 24.0435077581 1588
Cu 25.8485191159 34.8735036796 25.8485191159 1590
Cu 27.6535304736 31.2635170766 24.0435077581 1987
Cu 27.6535304736 33.0685284344 25.8485191159 1988
Cu 29.4585057189 31.2635170766 25.8485191159 1989
Cu 29.4585057189 33.0685284344 24.0435077581 1990
Cu 27.6535304736 34.8735036796 24.0435077581 2029
Cu 29.4585057189 34.8735036796 25.8485191159 2031
Cu 31.2635170766 31.2635170766 24.0435077581 2428
Cu 31.2635170766 33.0685284344 25.8485191159 2429
Cu 33.0685284344 31.2635170766 25.8485191159 2430
Cu 33.0685284344 33.0685284344 24.0435077581 2431
Cu 31.2635170766 34.8735036796 24.0435077581 2470
Cu 33.0685284344 34.8735036796 25.8485191159 2472
Cu 34.8735036796 31.2635170766 24.0435077581 2869
Cu 34.8735036796 33.0685284344 25.8485191159 2870
Cu 34.8735036796 34.8735036796 24.0435077581 2911
Cu 36.6785150374 31.2635170766 25.8485191159 2871
Cu 36.6785150374 33.0685284344 24.0435077581 2872
Cu 36.6785150374 34.8735036796 25.8485191159 2913
Cu 38.4835263951 31.2635170766 24.0435077581 3310
Cu 38.4835263951 33.0685284344 25.8485191159 3311
Cu 38.4835263951 34.8735036796 24.0435077581 3352
Cu 40.2885016404 31.2635170766 25.8485191159 3312
Cu 40.2885016404 33.0685284344 24.0435077581 3313
Cu 40.2885016404 34.8735036796 25.8485191159 3354
Cu 42.0935129981 31.2635170766 24.0435077581 3751
Cu 42.0935129981 33.0685284344 25.8485191159 3752
Cu 42.0935129981 34.8735036796 24.0435077581 3793
Cu 43.8985243559 31.2635170766 25.8485191159 3753
Cu 43.8985243559 33.0685284344 24.0435077581 3754
Cu 43.8985243559 34.8735036796 25.8485191159 3795
Cu 45.7034996011 31.2635170766 24.0435077581 4192
Cu 45.7034996011 33.0685284344 25.8485191159 4193
Cu 45.7034996011 34.8735036796 24.0435077581 4234
Cu 47.5085109588 31.2635170766 25.8485191159 4194
Cu 47.5085109588 33.0685284344 24.0435077581 4195
Cu 47.5085109588 34.8735036796 25.8485191159 4236
Cu 49.3135223166 31.2635170766 24.0435077581 4522
Cu 49.3135223166 33.0685284344 25.8485191159 4523
Cu 49.3135223166 34.8735036796 24.0435077581 4543
Cu 13.213517073 36.6785150374 25.8485191159 266
Cu 15.0185159719 36.6785150374 24.0435077581 268
Cu 13.213517073 38.4835263951 24.0435077581 307
Cu 15.0185159719 38.4835263951 25.8485191159 309
Cu 16.8235345521 36.6785150374 25.8485191159 707
Cu 18.6285097974 36.6785150374 24.0435077581 709
Cu 16.8235345521 38.4835263951 24.0435077581 748
Cu 18.6285097974 38.4835263951 25.8485191159 750
Cu 20.4335211551 36.6785150374 25.8485191159 1148
Cu 22.2385325129 36.6785150374 24.0435077581 1150
Cu 20.4335211551 38.4835263951 24.0435077581 1189
Cu 22.2385325129 38.4835263951 25.8485191159 1191
Cu 24.0435077581 36.6785150374 25.8485191159 1589
Cu 25.8485191159 36.6785150374 24.0435077581 1591
Cu 24.0435077581 38.4835263951 24.0435077581 1630
Cu 25.8485191159 38.4835263951 25.8485191159 1632
Cu 27.6535304736 36.6785150374 25.8485191159 2030
Cu 29.4585057189 36.6785150374 24.0435077581 2032
Cu 27.6535304736 38.4835263951 24.0435077581 2071
Cu 29.4585057189 38.4835263951 25.8485191159 2073
Cu 31.2635170766 36.6785150374 25.8485191159 2471
Cu 33.0685284344 36.6785150374 24.0435077581 2473
Cu 31.2635170766 38.4835263951 24.0435077581 2512
Cu 33.0685284344 38.4835263951 25.8485191159 2514
Cu 34.8735036796 36.6785150374 25.8485191159 2912
Cu 34.8735036796 38.4835263951 24.0435077581 2953
Cu 36.6785150374 36.6785150374 24.0435077581 2914
Cu 36.6785150374 38.4835263951 25.8485191159 2955
Cu 38.4835263951 36.6785150374 25.8485191159 3353
Cu 38.4835263951 38.4835263951 24.0435077581 3394
Cu 40.2885016404 36.6785150374 24.0435077581 3355
Cu 40.2885016404 38.4835263951 25.8485191159 3396
Cu 42.0935129981 36.6785150374 25.8485191159 3794
Cu 42.0935129981 38.4835263951 24.0435077581 3835
Cu 43.8985243559 36.6785150374 24.0435077581 3796
Cu 43.8985243559 38.4835263951 25.8485191159 3837
Cu 45.7034996011 36.6785150374 25.8485191159 4235
Cu 45.7034996011 38.4835263951 24.0435077581 4276
Cu 47.5085109588 36.6785150374 24.0435077581 4237
Cu 47.5085109588 38.4835263951 25.8485191159 4278
Cu 49.3135223166 36.6785150374 25.8485191159 4544
Cu 49.3135223166 38.4835263951 24.0435077581 4564
Cu 13.213517073 40.2885016404 25.8485191159 308
Cu 15.0185159719 40.2885016404 24.0435077581 310
Cu 13.213517073 42.0935129981 24.0435077581 349
Cu 15.0185159719 42.0935129981 25.8485191159 351
Cu 16.8235345521 40.2885016404 25.8485191159 749
Cu 18.6285097974 40.2885016404 24.0435077581 751
Cu 16.8235345521 42.0935129981 24.0435077581 790
Cu 18.6285097974 42.0935129981 25.8485191159 792
Cu 20.4335211551 40.2885016404 25.8485191159 1190
Cu 22.2385325129 40.2885016404 24.0435077581 1192
Cu 20.4335211551 42.0935129981 24.0435077581 1231
Cu 22.2385325129 42.0935129981 25.8485191159 1233
Cu 24.0435077581 40.2885016404 25.8485191159 1631
Cu 25.8485191159 40.2885016404 24.0435077581 1633
Cu 24.0435077581 42.0935129981 24.0435077581 1672
Cu 25.8485191159 42.0935129981 25.8485191159 1674
Cu 27.6535304736 40.2885016404 25.8485191159 2072
Cu 29.4585057189 40.2885016404 24.0435077581 2074
Cu 27.6535304736 42.0935129981 24.0435077581 2113
Cu 29.4585057189 42.0935129981 25.8485191159 2115
Cu 31.2635170766 40.2885016404 25.8485191159 2513
Cu 33.0685284344 40.2885016404 24.0435077581 2515
Cu 31.2635170766 42.0935129981 24.0435077581 2554
Cu 33.0685284344 42.0935129981 25.8485191159 2556
Cu 34.8735036796 40.2885016404 25.8485191159 2954
Cu 34.8735036796 42.0935129981 24.0435077581 2995
Cu 36.6785150374 40.2885016404 24.0435077581 2956
Cu 36.6785150374 42.0935129981 25.8485191159 2997
Cu 38.4835263951 40.2885016404 25.8485191159 3395
Cu 38.4835263951 42.0935129981 24.0435077581 3436
Cu 40.2885016404 40.2885016404 24.0435077581 3397
Cu 40.2885016404 42.0935129981 25.8485191159 3438
Cu 42.0935129981 40.2885016404 25.8485191159 3836
Cu 42.0935129981 42.0935129981 24.0435077581 3877
Cu 43.8985243559 40.2885016404 24.0435077581 3838
Cu 43.8985243559 42.0935129981 25.8485191159 3879
Cu 45.7034996011 40.2885016404 25.8485191159 4277
Cu 45.7034996011 42.0935129981 24.0435077581 4318
Cu 47.5085109588 40.2885016404 24.0435077581 4279
Cu 47.5085109588 42.0935129981 25.8485191159 4320
Cu 49.3135223166 40.2885016404 25.8485191159 4565
Cu 49.3135223166 42.0935129981 24.0435077581 4585
Cu 13.213517073 43.8985243559 25.8485191159 350
Cu 15.0185159719 43.8985243559 24.0435077581 352
Cu 13.213517073 45.7034996011 24.0435077581 391
Cu 15.0185159719 45.7034996011 25.8485191159 393
Cu 16.8235345521 43.8985243559 25.8485191159 791
Cu 18.6285097974 43.8985243559 24.0435077581 793
Cu 16.8235345521 45.7034996011 24.0435077581 832
Cu 18.6285097974 45.7034996011 25.8485191159 834
Cu 20.4335211551 43.8985243559 25.8485191159 1232
Cu 22.2385325129 43.8985243559 24.0435077581 1234
Cu 20.4335211551 45.7034996011 24.0435077581 1273
Cu 22.2385325129 45.7034996011 25.8485191159 1275
Cu 24.0435077581 43.8985243559 25.8485191159 1673
Cu 25.8485191159 43.8985243559 24.0435077581 1675
Cu 24.0435077581 45.7034996011 24.0435077581 1714
Cu 25.8485191159 45.7034996011 25.8485191159 1716
Cu 27.6535304736 43.8985243559 25.8485191159 2114
Cu 29.4585057189 43.8985243559 24.0435077581 2116
Cu 27.6535304736 45.7034996011 24.0435077581 2155
Cu 29.4585057189 45.7034996011 25.8485191159 2157
Cu 31.2635170766 43.8985243559 25.8485191159 2555
Cu 33.0685284344 43.8985243559 24.0435077581 2557
Cu 31.2635170766 45.7034996011 24.0435077581 2596
Cu 33.0685284344 45.7034996011 25.8485191159 2598
Cu 34.8735036796 43.8985243559 25.8485191159 2996
Cu 34.8735036796 45.7034996011 24.0435077581 3037
Cu 36.6785150374 43.8985243559 24.0435077581 2998
Cu 36.6785150374 45.7034996011 25.8485191159 3039
Cu 38.4835263951 43.8985243559 25.8485191159 3437
Cu 38.4835263951 45.7034996011 24.0435077581 3478
Cu 40.2885016404 43.8985243559 24.0435077581 3439
Cu 40.2885016404 45.7034996011 25.8485191159 3480
Cu 42.0935129981 43.8985243559 25.8485191159 3878
Cu 42.0935129981 45.7034996011 24.0435077581 3919
Cu 43.8985243559 43.8985243559 24.0435077581 3880
Cu 43.8985243559 45.7034996011 25.8485191159 3921
Cu 45.7034996011 43.8985243559 25.8485191159 4319
Cu 45.7034996011 45.7034996011 24.0435077581 4360
Cu 47.5085109588 43.8985243559 24.0435077581 4321
Cu 47.5085109588 45.7034996011 25.8485191159 4362
Cu 49.3135223166 43.8985243559 25.8485191159 4586
Cu 49.3135223166 45.7034996011 24.0435077581 4606
Cu 13.213517073 47.5085109588 25.8485191159 392
Cu 15.0185159719 47.5085109588 24.0435077581 394
Cu 13.213517073 49.3135223166 24.0435077581 427
Cu 15.0185159719 49.3135223166 25.8485191159 428
Cu 16.8235345521 47.5085109588 25.8485191159 833
Cu 18.6285097974 47.5085109588 24.0435077581 835
Cu 16.8235345521 49.3135223166 24.0435077581 868
Cu 18.6285097974 49.3135223166 25.8485191159 869
Cu 20.4335211551 47.5085109588 25.8485191159 1274
Cu 22.2385325129 47.5085109588 24.0435077581 1276
Cu 20.4335211551 49.3135223166 24.0435077581 1309
Cu 22.2385325129 49.3135223166 25.8485191159 1310
Cu 24.0435077581 47.5085109588 25.8485191159 1715
Cu 25.8485191159 47.5085109588 24.0435077581 1717
Cu 24.0435077581 49.3135223166 24.0435077581 1750
Cu 25.8485191159 49.3135223166 25.8485191159 1751
Cu 27.6535304736 47.5085109588 25.8485191159 2156
Cu 29.4585057189 47.5085109588 24.0435077581 2158
Cu 27.6535304736 49.3135223166 24.0435077581 2191
Cu 29.4585057189 49.3135223166 25.8485191159 2192
Cu 31.2635170766 47.5085109588 25.8485191159 2597
Cu 33.0685284344 47.5085109588 24.0435077581 2599
Cu 31.2635170766 49.3135223166 24.0435077581 2632
Cu 33.0685284344 49.3135223166 25.8485191159 2633
Cu 34.8735036796 47.5085109588 25.8485191159 3038
Cu 34.8735036796 49.3135223166 24.0435077581 3073
Cu 36.6785150374 47.5085109588 24.0435077581 3040
Cu 36.6785150374 49.3135223166 25.8485191159 3074
Cu 38.4835263951 47.5085109588 25.8485191159 3479
Cu 38.4835263951 49.3135223166 24.0435077581 3514
Cu 40.2885016404 47.5085109588 24.0435077581 3481
Cu 40.2885016404 49.3135223166 25.8485191159 3515
Cu 42.0935129981 47.5085109588 25.8485191159 3920
Cu 42.0935129981 49.3135223166 24.0435077581 3955
Cu 43.8985243559 47.5085109588 24.0435077581 3922
Cu 43.8985243559 49.3135223166 25.8485191159 3956
Cu 45.7034996011 47.5085109588 25.8485191159 4361
Cu 45.7034996011 49.3135223166 24.0435077581 4396
Cu 47.5085109588 47.5085109588 24.0435077581 4363
Cu 47.5085109588 49.3135223166 25.8485191159 4397
Cu 49.3135223166 47.5085109588 25.8485191159 4607
Cu 49.3135223166 49.3135223166 24.0435077581 4624
Cu 13.213517073 13.213517073 27.6535304736 17
Cu 13.213517073 15.0185159719 29.4585057189 18
Cu 15.0185159719 13.213517073 29.4585057189 19
Cu 15.0185159719 15.0185159719 27.6535304736 20
Cu 16.8235345521 13.213517073 27.6535304736 458
Cu 16.8235345521 15.0185159719 29.4585057189 459
Cu 18.6285097974 13.213517073 29.4585057189 460
Cu 18.6285097974 15.0185159719 27.6535304736 461
Cu 20.4335211551 13.213517073 27.6535304736 899
Cu 20.4335211551 15.0185159719 29.4585057189 900
Cu 22.2385325129 13.213517073 29.4585057189 901
Cu 22.2385325129 15.0185159719 27.6535304736 902
Cu 24.0435077581 13.213517073 27.6535304736 1340
Cu 24.0435077581 15.0185159719 29.4585057189 1341
Cu 25.8485191159 13.213517073 29.4585057189 1342
Cu 25.8485191159 15.0185159719 27.6535304736 1343
Cu 27.6535304736 13.213517073 27.6535304736 1781
Cu 27.6535304736 15.0185159719 29.4585057189 1782
Cu 29.4585057189 13.213517073 29.4585057189 1783
Cu 29.4585057189 15.0185159719 27.6535304736 1784
Cu 31.2635170766 13.213517073 27.6535304736 2222
Cu 31.2635170766 15.0185159719 29.4585057189 2223
Cu 33.0685284344 13.213517073 29.4585057189 2224
Cu 33.0685284344 15.0185159719 27.6535304736 2225
Cu 34.8735036796 13.213517073 27.6535304736 2663
Cu 34.8735036796 15.0185159719 29.4585057189 2664
Cu 36.6785150374 13.213517073 29.4585057189 2665
Cu 36.6785150374 15.0185159719 27.6535304736 2666
Cu 38.4835263951 13.213517073 27.6535304736 3104
Cu 38.4835263951 15.0185159719 29.4585057189 3105
Cu 40.2885016404 13.213517073 29.4585057189 3106
Cu 40.2885016404 15.0185159719 27.6535304736 3107
Cu 42.0935129981 13.213517073 27.6535304736 3545
Cu 42.0935129981 15.0185159719 29.4585057189 3546
Cu 43.8985243559 13.213517073 29.4585057189 3547
Cu 43.8985243559 15.0185159719 27.6535304736 3548
Cu 45.7034996011 13.213517073 27.6535304736 3986
Cu 45.7034996011 15.0185159719 29.4585057189 3987
Cu 47.5085109588 13.213517073 29.4585057189 3988
Cu 47.5085109588 15.0185159719 27.6535304736 3989
Cu 49.3135223166 13.213517073 27.6535304736 4419
Cu 49.3135223166 15.0185159719 29.4585057189 4420
Cu 13.213517073 16.8235345521 27.6535304736 59
Cu 13.213517073 18.6285097974 29.4585057189 60
Cu 15.0185159719 16.8235345521 29.4585057189 61
Cu 15.0185159719 18.6285097974 27.6535304736 62
Cu 16.8235345521 16.8235345521 27.6535304736 500
Cu 16.8235345521 18.6285097974 29.4585057189 501
Cu 18.6285097974 16.8235345521 29.4585057189 502
Cu 18.6285097974 18.6285097974 27.6535304736 503
Cu 20.4335211551 16.8235345521 27.6535304736 941
Cu 20.4335211551 18.6285097974 29.4585057189 942
Cu 22.2385325129 16.8235345521 29.4585057189 943
Cu 22.2385325129 18.6285097974 27.6535304736 944
Cu 24.0435077581 16.8235345521 27.6535304736 1382
Cu 24.0435077581 18.6285097974 29.4585057189 1383
Cu 25.8485191159 16.8235345521 29.4585057189 1384
Cu 25.8485191159 18.6285097974 27.6535304736 1385
Cu 27.6535304736 16.8235345521 27.6535304736 1823
Cu 27.6535304736 18.6285097974 29.4585057189 1824
Cu 29.4585057189 16.8235345521 29.4585057189 1825
Cu 29.4585057189 18.6285097974 27.6535304736 1826
Cu 31.2635170766 16.8235345521 27.6535304736 2264
Cu 31.2635170766 18.6285097974 29.4585057189 2265
Cu 33.0685284344 16.8235345521 29.4585057189 2266
Cu 33.0685284344 18.6285097974 27.6535304736 2267
Cu 34.8735036796 16.8235345521 27.6535304736 2705
Cu 34.8735036796 18.6285097974 29.4585057189 2706
Cu 36.6785150374 16.8235345521 29.4585057189 2707
Cu 36.6785150374 18.6285097974 27.6535304736 2708
Cu 38.4835263951 16.8235345521 27.6535304736 3146
Cu 38.4835263951 18.6285097974 29.4585057189 3147
Cu 40.2885016404 16.8235345521 29.4585057189 3148
Cu 40.2885016404 18.6285097974 27.6535304736 3149
Cu 42.0935129981 16.8235345521 27.6535304736 3587
Cu 42.0935129981 18.6285097974 29.4585057189 3588
Cu 43.8985243559 16.8235345521 29.4585057189 3589
Cu 43.8985243559 18.6285097974 27.6535304736 3590
Cu 45.7034996011 16.8235345521 27.6535304736 4028
Cu 45.7034996011 18.6285097974 29.4585057189 4029
Cu 47.5085109588 16.8235345521 29.4585057189 4030
Cu 47.5085109588 18.6285097974 27.6535304736 4031
Cu 49.3135223166 16.8235345521 27.6535304736 4440
Cu 49.3135223166 18.6285097974 29.4585057189 4441
Cu 13.213517073 20.4335211551 27.6535304736 101
Cu 13.213517073 22.2385325129 29.4585057189 102
Cu 15.0185159719 20.4335211551 29.4585057189 103
Cu 15.0185159719 22.2385325129 27.6535304736 104
Cu 16.8235345521 20.4335211551 27.6535304736 542
Cu 16.8235345521 22.2385325129 29.4585057189 543
Cu 18.6285097974 20.4335211551 29.4585057189 544
Cu 18.6285097974 22.2385325129 27.6535304736 545
Cu 20.4335211551 20.4335211551 27.6535304736 983
Cu 20.4335211551 22.2385325129 29.4585057189 984
Cu 22.2385325129 20.4335211551 29.4585057189 985
Cu 22.2385325129 22.2385325129 27.6535304736 986
Cu 24.0435077581 20.4335211551 27.6535304736 1424
Cu 24.0435077581 22.2385325129 29.4585057189 1425
Cu 25.8485191159 20.4335211551 29.4585057189 1426
Cu 25.8485191159 22.2385325129 27.6535304736 1427
Cu 27.6535304736 20.4335211551 27.6535304736 1865
Cu 27.6535304736 22.2385325129 29.4585057189 1866
Cu 29.4585057189 20.4335211551 29.4585057189 1867
Cu 29.4585057189 22.2385325129 27.6535304736 1868
Cu 31.2635170766 20.4335211551 27.6535304736 2306
Cu 31.2635170766 22.2385325129 29.4585057189 2307
Cu 33.0685284344 20.4335211551 29.4585057189 2308
Cu 33.0685284344 22.2385325129 27.6535304736 2309
Cu 34.8735036796 20.4335211551 27.6535304736 2747
Cu 34.8735036796 22.2385325129 29.4585057189 2748
Cu 36.6785150374 20.4335211551 29.4585057189 2749
Cu 36.6785150374 22.2385325129 27.6535304736 2750
Cu 38.4835263951 20.4335211551 27.6535304736 3188
Cu 38.4835263951 22.2385325129 29.4585057189 3189
Cu 40.2885016404 20.4335211551 29.4585057189 3190
Cu 40.2885016404 22.2385325129 27.6535304736 3191
Cu 42.0935129981 20.4335211551 27.6535304736 3629
Cu 42.0935129981 22.2385325129 29.4585057189 3630
Cu 43.8985243559 20.4335211551 29.4585057189 3631
Cu 43.8985243559 22.2385325129 27.6535304736 3632
Cu 45.7034996011 20.4335211551 27.6535304736 4070
Cu 45.7034996011 22.2385325129 29.4585057189 4071
Cu 47.5085109588 20.4335211551 29.4585057189 4072
Cu 47.5085109588 22.2385325129 27.6535304736 4073
Cu 49.3135223166 20.4335211551 27.6535304736 4461
Cu 49.3135223166 22.2385325129 29.4585057189 4462
Cu 13.213517073 24.0435077581 27.6535304736 143
Cu 13.213517073 25.8485191159 29.4585057189 144
Cu 15.0185159719 24.0435077581 29.4585057189 145
Cu 15.0185159719 25.8485191159 27.6535304736 146
Cu 16.8235345521 24.0435077581 27.6535304736 584
Cu 16.8235345521 25.8485191159 29.4585057189 585
Cu 18.6285097974 24.0435077581 29.4585057189 586
Cu 18.6285097974 25.8485191159 27.6535304736 587
Cu 20.4335211551 24.0435077581 27.6535304736 1025
Cu 20.4335211551 25.8485191159 29.4585057189 1026
Cu 22.2385325129 24.0435077581 29.4585057189 1027
Cu 22.2385325129 25.8485191159 27.6535304736 1028
Cu 24.0435077581 24.0435077581 27.6535304736 1466
Cu 24.0435077581 25.8485191159 29.4585057189 1467
Cu 25.8485191159 24.0435077581 29.4585057189 1468
Cu 25.8485191159 25.8485191159 27.6535304736 1469
Cu 27.6535304736 24.0435077581 27.6535304736 1907
Cu 27.6535304736 25.8485191159 29.4585057189 1908
Cu 29.4585057189 24.0435077581 29.4585057189 1909
Cu 29.4585057189 25.8485191159 27.6535304736 1910
Cu 31.2635170766 24.0435077581 27.6535304736 2348
Cu 31.2635170766 25.8485191159 29.4585057189 2349
Cu 33.0685284344 24.0435077581 29.4585057189 2350
Cu 33.0685284344 25.8485191159 27.6535304736 2351
Cu 34.8735036796 24.0435077581 27.6535304736 2789
Cu 34.8735036796 25.8485191159 29.4585057189 2790
Cu 36.6785150374 24.0435077581 29.4585057189 2791
Cu 36.6785150374 25.8485191159 27.6535304736 2792
Cu 38.4835263951 24.0435077581 27.6535304736 3230
Cu 38.4835263951 25.8485191159 29.4585057189 3231
Cu 40.2885016404 24.0435077581 29.4585057189 3232
Cu 40.2885016404 25.8485191159 27.6535304736 3233
Cu 42.0935129981 24.0435077581 27.6535304736 3671
Cu 42.0935129981 25.8485191159 29.4585057189 3672
Cu 43.8985243559 24.0435077581 29.4585057189 3673
Cu 43.8985243559 25.8485191159 27.6535304736 3674
Cu 45.7034996011 24.0435077581 27.6535304736 4112
Cu 45.7034996011 25.8485191159 29.4585057189 4113
Cu 47.5085109588 24.0435077581 29.4585057189 4114
Cu 47.5085109588 25.8485191159 27.6535304736 4115
Cu 49.3135223166 24.0435077581 27.6535304736 4482
Cu 49.3135223166 25.8485191159 29.4585057189 4483
Cu 13.213517073 27.6535304736 27.6535304736 185
Cu 13.213517073 29.4585057189 29.4585057189 186
Cu 15.0185159719 27.6535304736 29.4585057189 187
Cu 15.0185159719 29.4585057189 27.6535304736 188
Cu 16.8235345521 27.6535304736 27.6535304736 626
Cu 16.8235345521 29.4585057189 29.4585057189 627
Cu 18.6285097974 27.6535304736 29.4585057189 628
Cu 18.6285097974 29.4585057189 27.6535304736 629
Cu 20.4335211551 27.6535304736 27.6535304736 1067
Cu 20.4335211551 29.4585057189 29.4585057189 1068
Cu 22.2385325129 27.6535304736 29.4585057189 1069
Cu 22.2385325129 29.4585057189 27.6535304736 1070
Cu 24.0435077581 27.6535304736 27.6535304736 1508
Cu 24.0435077581 29.4585057189 29.4585057189 1509
Cu 25.8485191159 27.6535304736 29.4585057189 1510
Cu 25.8485191159 29.4585057189 27.6535304736 1511
Cu 27.6535304736 27.6535304736 27.6535304736 1949
Cu 27.6535304736 29.4585057189 29.4585057189 1950
Cu 29.4585057189 27.6535304736 29.4585057189 1951
Cu 29.4585057189 29.4585057189 27.6535304736 1952
Cu 31.2635170766 27.6535304736 27.6535304736 2390
Cu 31.2635170766 29.4585057189 29.4585057189 2391
Cu 33.0685284344 27.6535304736 29.4585057189 2392
Cu 33.0685284344 29.4585057189 27.6535304736 2393
Cu 34.8735036796 27.6535304736 27.6535304736 2831
Cu 34.8735036796 29.4585057189 29.4585057189 2832
Cu 36.6785150374 27.6535304736 29.4585057189 2833
Cu 36.6785150374 29.4585057189 27.6535304736 2834
Cu 38.4835263951 27.6535304736 27.6535304736 3272
Cu 38.4835263951 29.4585057189 29.4585057189 3273
Cu 40.2885016404 27.6535304736 29.4585057189 3274
Cu 40.2885016404 29.4585057189 27.6535304736 3275
Cu 42.0935129981 27.6535304736 27.6535304736 3713
Cu 42.0935129981 29.4585057189 29.4585057189 3714
Cu 43.8985243559 27.6535304736 29.4585057189 3715
Cu 43.8985243559 29.4585057189 27.6535304736 3716
Cu 45.7034996011 27.6535304736 27.6535304736 4154
Cu 45.7034996011 29.4585057189 29.4585057189 4155
Cu 47.5085109588 27.6535304736 29.4585057189 4156
Cu 47.5085109588 29.4585057189 27.6535304736 4157
Cu 49.3135223166 27.6535304736 27.6535304736 4503
Cu 49.3135223166 29.4585057189 29.4585057189 4504
Cu 13.213517073 31.2635170766 27.6535304736 227
Cu 13.213517073 33.0685284344 29.4585057189 228
Cu 15.0185159719 31.2635170766 29.4585057189 229
Cu 15.0185159719 33.0685284344 27.6535304736 230
Cu 13.213517073 34.8735036796 27.6535304736 269
Cu 15.0185159719 34.8735036796 29.4585057189 271
Cu 16.8235345521 31.2635170766 27.6535304736 668
Cu 16.8235345521 33.0685284344 29.4585057189 669
Cu 18.6285097974 31.2635170766 29.4585057189 670
Cu 18.6285097974 33.0685284344 27.6535304736 671
Cu 16.8235345521 34.8735036796 27.6535304736 710
Cu 18.6285097974 34.8735036796 29.4585057189 712
Cu 20.4335211551 31.2635170766 27.6535304736 1109
Cu 20.4335211551 33.0685284344 29.4585057189 1110
Cu 22.2385325129 31.2635170766 29.4585057189 1111
Cu 22.2385325129 33.0685284344 27.6535304736 1112
Cu 20.4335211551 34.8735036796 27.6535304736 1151
Cu 22.2385325129 34.8735036796 29.4585057189 1153
Cu 24.0435077581 31.2635170766 27.6535304736 1550
Cu 24.0435077581 33.0685284344 29.4585057189 1551
Cu 25.8485191159 31.2635170766 29.4585057189 1552
Cu 25.8485191159 33.0685284344 27.6535304736 1553
Cu 24.0435077581 34.8735036796 27.6535304736 1592
Cu 25.8485191159 34.8735036796 29.4585057189 1594
Cu 27.6535304736 31.2635170766 27.6535304736 1991
Cu 27.6535304736 33.0685284344 29.4585057189 1992
Cu 29.4585057189 31.2635170766 29.4585057189 1993
Cu 29.4585057189 33.0685284344 27.6535304736 1994
Cu 27.6535304736 34.8735036796 27.6535304736 2033
Cu 29.4585057189 34.8735036796 29.4585057189 2035
Cu 31.2635170766 31.2635170766 27.6535304736 2432
Cu 31.2635170766 33.0685284344 29.4585057189 2433
Cu 33.0685284344 31.2635170766 29.4585057189 2434
Cu 33.0685284344 33.0685284344 27.6535304736 2435
Cu 31.2635170766 34.8735036796 27.6535304736 2474
Cu 33.0685284344 34.8735036796 29.4585057189 2476
Cu 34.8735036796 31.2635170766 27.6535304736 2873
Cu 34.8735036796 33.0685284344 29.4585057189 2874
Cu 34.8735036796 34.8735036796 27.6535304736 2915
Cu 36.6785150374 31.2635170766 29.4585057189 2875
Cu 36.6785150374 33.0685284344 27.6535304736 2876
Cu 36.6785150374 34.8735036796 29.4585057189 2917
Cu 38.4835263951 31.2635170766 27.6535304736 3314
Cu 38.4835263951 33.0685284344 29.4585057189 3315
Cu 38.4835263951 34.8735036796 27.6535304736 3356
Cu 40.2885016404 31.2635170766 29.4585057189 3316
Cu 40.2885016404 33.0685284344 27.6535304736 3317
Cu 40.2885016404 34.8735036796 29.4585057189 3358
Cu 42.0935129981 31.2635170766 27.6535304736 3755
Cu 42.0935129981 33.0685284344 29.4585057189 3756
Cu 42.0935129981 34.8735036796 27.6535304736 3797
Cu 43.8985243559 31.2635170766 29.4585057189 3757
Cu 43.8985243559 33.0685284344 27.6535304736 3758
Cu 43.8985243559 34.8735036796 29.4585057189 3799
Cu 45.7034996011 31.2635170766 27.6535304736 4196
Cu 45.7034996011 33.0685284344 29.4585057189 4197
Cu 45.7034996011 34.8735036796 27.6535304736 4238
Cu 47.5085109588 31.2635170766 29.4585057189 4198
Cu 47.5085109588 33.0685284344 27.6535304736 4199
Cu 47.5085109588 34.8735036796 29.4585057189 4240
Cu 49.3135223166 31.2635170766 27.6535304736 4524
Cu 49.3135223166 33.0685284344 29.4585057189 4525
Cu 49.3135223166 34.8735036796 27.6535304736 4545
Cu 13.213517073 36.6785150374 29.4585057189 270
Cu 15.0185159719 36.6785150374 27.6535304736 272
Cu 13.213517073 38.4835263951 27.6535304736 311
Cu 15.0185159719 38.4835263951 29.4585057189 313
Cu 16.8235345521 36.6785150374 29.4585057189 711
Cu 18.6285097974 36.6785150374 27.6535304736 713
Cu 16.8235345521 38.4835263951 27.6535304736 752
Cu 18.6285097974 38.4835263951 29.4585057189 754
Cu 20.4335211551 36.6785150374 29.4585057189 1152
Cu 22.2385325129 36.6785150374 27.6535304736 1154
Cu 20.4335211551 38.4835263951 27.6535304736 1193
Cu 22.2385325129 38.4835263951 29.4585057189 1195
Cu 24.0435077581 36.6785150374 29.4585057189 1593
Cu 25.8485191159 36.6785150374 27.6535304736 1595
Cu 24.0435077581 38.4835263951 27.6535304736 1634
Cu 25.8485191159 38.4835263951 29.4585057189 1636
Cu 27.6535304736 36.6785150374 29.4585057189 2034
Cu 29.4585057189 36.6785150374 27.6535304736 2036
Cu 27.6535304736 38.4835263951 27.6535304736 2075
Cu 29.4585057189 38.4835263951 29.4585057189 2077
Cu 31.2635170766 36.6785150374 29.4585057189 2475
Cu 33.0685284344 36.6785150374 27.6535304736 2477
Cu 31.2635170766 38.4835263951 27.6535304736 2516
Cu 33.0685284344 38.4835263951 29.4585057189 2518
Cu 34.8735036796 36.6785150374 29.4585057189 2916
Cu 34.8735036796 38.4835263951 27.6535304736 2957
Cu 36.6785150374 36.6785150374 27.6535304736 2918
Cu 36.6785150374 38.4835263951 29.4585057189 2959
Cu 38.4835263951 36.6785150374 29.4585057189 3357
Cu 38.4835263951 38.4835263951 27.6535304736 3398
Cu 40.2885016404 36.6785150374 27.6535304736 3359
Cu 40.2885016404 38.4835263951 29.4585057189 3400
Cu 42.0935129981 36.6785150374 29.4585057189 3798
Cu 42.0935129981 38.4835263951 27.6535304736 3839
Cu 43.8985243559 36.6785150374 27.6535304736 3800
Cu 43.8985243559 38.4835263951 29.4585057189 3841
Cu 45.7034996011 36.6785150374 29.4585057189 4239
Cu 45.7034996011 38.4835263951 27.6535304736 4280
Cu 47.5085109588 36.6785150374 27.6535304736 4241
Cu 47.5085109588 38.4835263951 29.4585057189 4282
Cu 49.3135223166 36.6785150374 29.4585057189 4546
Cu 49.3135223166 38.4835263951 27.6535304736 4566
Cu 13.213517073 40.2885016404 29.4585057189 312
Cu 15.0185159719 40.2885016404 27.6535304736 314
Cu 13.213517073 42.0935129981 27.6535304736 353
Cu 15.0185159719 42.0935129981 29.4585057189 355
Cu 16.8235345521 40.2885016404 29.4585057189 753
Cu 18.6285097974 40.2885016404 27.6535304736 755
Cu 16.8235345521 42.0935129981 27.6535304736 794
Cu 18.6285097974 42.0935129981 29.4585057189 796
Cu 20.4335211551 40.2885016404 29.4585057189 1194
Cu 22.2385325129 40.2885016404 27.6535304736 1196
Cu 20.4335211551 42.0935129981 27.6535304736 1235
Cu 22.2385325129 42.0935129981 29.4585057189 1237
Cu 24.0435077581 40.2885016404 29.4585057189 1635
Cu 25.8485191159 40.2885016404 27.6535304736 1637
Cu 24.0435077581 42.0935129981 27.6535304736 1676
Cu 25.8485191159 42.0935129981 29.4585057189 1678
Cu 27.6535304736 40.2885016404 29.4585057189 2076
Cu 29.4585057189 40.2885016404 27.6535304736 2078
Cu 27.6535304736 42.0935129981 27.6535304736 2117
Cu 29.4585057189 42.0935129981 29.4585057189 2119
Cu 31.2635170766 40.2885016404 29.4585057189 2517
Cu 33.0685284344 40.2885016404 27.6535304736 2519
Cu 31.2635170766 42.0935129981 27.6535304736 2558
Cu 33.0685284344 42.0935129981 29.4585057189 2560
Cu 34.8735036796 40.2885016404 29.4585057189 2958
Cu 34.8735036796 42.0935129981 27.6535304736 2999
Cu 36.6785150374 40.2885016404 27.6535304736 2960
Cu 36.6785150374 42.0935129981 29.4585057189 3001
Cu 38.4835263951 40.2885016404 29.4585057189 3399
Cu 38.4835263951 42.0935129981 27.6535304736 3440
Cu 40.2885016404 40.2885016404 27.6535304736 3401
Cu 40.2885016404 42.0935129981 29.4585057189 3442
Cu 42.0935129981 40.2885016404 29.4585057189 3840
Cu 42.0935129981 42.0935129981 27.6535304736 3881
Cu 43.8985243559 40.2885016404 27.6535304736 3842
Cu 43.8985243559 42.0935129981 29.4585057189 3883
Cu 45.7034996011 40.2885016404 29.4585057189 4281
Cu 45.7034996011 42.0935129981 27.6535304736 4322
Cu 47.5085109588 40.2885016404 27.6535304736 4283
Cu 47.5085109588 42.0935129981 29.4585057189 4324
Cu 49.3135223166 40.2885016404 29.4585057189 4567
Cu 49.3135223166 42.0935129981 27.6535304736 4587
Cu 13.213517073 43.8985243559 29.4585057189 354
Cu 15.0185159719 43.8985243559 27.6535304736 356
Cu 13.213517073 45.7034996011 27.6535304736 395
Cu 15.0185159719 45.7034996011 29.4585057189 397
Cu 16.8235345521 43.8985243559 29.4585057189 795
Cu 18.6285097974 43.8985243559 27.6535304736 797
Cu 16.8235345521 45.7034996011 27.6535304736 836
Cu 18.6285097974 45.7034996011 29.4585057189 838
Cu 20.4335211551 43.8985243559 29.4585057189 1236
Cu 22.2385325129 43.8985243559 27.6535304736 1238
Cu 20.4335211551 45.7034996011 27.6535304736 1277
Cu 22.2385325129 45.7034996011 29.4585057189 1279
Cu 24.0435077581 43.8985243559 29.4585057189 1677
Cu 25.8485191159 43.8985243559 27.6535304736 1679
Cu 24.0435077581 45.7034996011 27.6535304736 1718
Cu 25.8485191159 45.7034996011 29.4585057189 1720
Cu 27.6535304736 43.8985243559 29.4585057189 2118
Cu 29.4585057189 43.8985243559 27.6535304736 2120
Cu 27.6535304736 45.7034996011 27.6535304736 2159
Cu 29.4585057189 45.7034996011 29.4585057189 2161
Cu 31.2635170766 43.8985243559 29.4585057189 2559
Cu 33.0685284344 43.8985243559 27.6535304736 2561
Cu 31.2635170766 45.7034996011 27.6535304736 2600
Cu 33.0685284344 45.7034996011 29.4585057189 2602
Cu 34.8735036796 43.8985243559 29.4585057189 3000
Cu 34.8735036796 45.7034996011 27.6535304736 3041
Cu 36.6785150374 43.8985243559 27.6535304736 3002
Cu 36.6785150374 45.7034996011 29.4585057189 3043
Cu 38.4835263951 43.8985243559 29.4585057189 3441
Cu 38.4835263951 45.7034996011 27.6535304736 3482
Cu 40.2885016404 43.8985243559 27.6535304736 3443
Cu 40.2885016404 45.7034996011 29.4585057189 3484
Cu 42.0935129981 43.8985243559 29.4585057189 3882
Cu 42.0935129981 45.7034996011 27.6535304736 3923
Cu 43.8985243559 43.8985243559 27.6535304736 3884
Cu 43.8985243559 45.7034996011 29.4585057189 3925
Cu 45.7034996011 43.8985243559 29.4585057189 4323
Cu 45.7034996011 45.7034996011 27.6535304736 4364
Cu 47.5085109588 43.8985243559 27.6535304736 4325
Cu 47.5085109588 45.7034996011 29.4585057189 4366
Cu 49.3135223166 43.8985243559 29.4585057189 4588
Cu 49.3135223166 45.7034996011 27.6535304736 4608
Cu 13.213517073 47.5085109588 29.4585057189 396
Cu 15.0185159719 47.5085109588 27.6535304736 398
Cu 13.213517073 49.3135223166 27.6535304736 429
Cu 15.0185159719 49.3135223166 29.4585057189 430
Cu 16.8235345521 47.5085109588 29.4585057189 837
Cu 18.6285097974 47.5085109588 27.6535304736 839
Cu 16.8235345521 49.3135223166 27.6535304736 870
Cu 18.6285097974 49.3135223166 29.4585057189 871
Cu 20.4335211551 47.5085109588 29.4585057189 1278
Cu 22.2385325129 47.5085109588 27.6535304736 1280
Cu 20.4335211551 49.3135223166 27.6535304736 1311
Cu 22.2385325129 49.3135223166 29.4585057189 1312
Cu 24.0435077581 47.5085109588 29.4585057189 1719
Cu 25.8485191159 47.5085109588 27.6535304736 1721
Cu 24.0435077581 49.3135223166 27.6535304736 1752
Cu 25.8485191159 49.3135223166 29.4585057189 1753
Cu 27.6535304736 47.5085109588 29.4585057189 2160
Cu 29.4585057189 47.5085109588 27.6535304736 2162
Cu 27.6535304736 49.3135223166 27.6535304736 2193
Cu 29.4585057189 49.3135223166 29.4585057189 2194
Cu 31.2635170766 47.5085109588 29.4585057189 2601
Cu 33.0685284344 47.5085109588 27.6535304736 2603
Cu 31.2635170766 49.3135223166 27.6535304736 2634
Cu 33.0685284344 49.3135223166 29.4585057189 2635
Cu 34.8735036796 47.5085109588 29.4585057189 3042
Cu 34.8735036796 49.3135223166 27.6535304736 3075
Cu 36.6785150374 47.5085109588 27.6535304736 3044
Cu 36.6785150374 49.3135223166 29.4585057189 3076
Cu 38.4835263951 47.5085109588 29.4585057189 3483
Cu 38.4835263951 49.3135223166 27.6535304736 3516
Cu 40.2885016404 47.5085109588 27.6535304736 3485
Cu 40.2885016404 49.3135223166 29.4585057189 3517
Cu 42.0935129981 47.5085109588 29.4585057189 3924
Cu 42.0935129981 49.3135223166 27.6535304736 3957
Cu 43.8985243559 47.5085109588 27.6535304736 3926
Cu 43.8985243559 49.3135223166 29.4585057189 3958
Cu 45.7034996011 47.5085109588 29.4585057189 4365
Cu 45.7034996011 49.3135223166 27.6535304736 4398
Cu 47.5085109588 47.5085109588 27.6535304736 4367
Cu 47.5085109588 49.3135223166 29.4585057189 4399
Cu 49.3135223166 47.5085109588 29.4585057189 4609
Cu 49.3135223166 49.3135223166 27.6535304736 4625
Cu 13.213517073 13.213517073 31.2635170766 21
Cu 13.213517073 15.0185159719 33.0685284344 22
Cu 15.0185159719 13.213517073 33.0685284344 23
Cu 15.0185159719 15.0185159719 31.2635170766 24
Cu 13.213517073 13.213517073 34.8735036796 25
Cu 15.0185159719 15.0185159719 34.8735036796 28
Cu 16.8235345521 13.213517073 31.2635170766 462
Cu 16.8235345521 15.0185159719 33.0685284344 463
Cu 18.6285097974 13.213517073 33.0685284344 464
Cu 18.6285097974 15.0185159719 31.2635170766 465
Cu 16.8235345521 13.213517073 34.8735036796 466
Cu 18.6285097974 15.0185159719 34.8735036796 469
Cu 20.4335211551 13.213517073 31.2635170766 903
Cu 20.4335211551 15.0185159719 33.0685284344 904
Cu 22.2385325129 13.213517073 33.0685284344 905
Cu 22.2385325129 15.0185159719 31.2635170766 906
Cu 20.4335211551 13.213517073 34.8735036796 907
Cu 22.2385325129 15.0185159719 34.8735036796 910
Cu 24.0435077581 13.213517073 31.2635170766 1344
Cu 24.0435077581 15.0185159719 33.0685284344 1345
Cu 25.8485191159 13.213517073 33.0685284344 1346
Cu 25.8485191159 15.0185159719 31.2635170766 1347
Cu 24.0435077581 13.213517073 34.8735036796 1348
Cu 25.8485191159 15.0185159719 34.8735036796 1351
Cu 27.6535304736 13.213517073 31.2635170766 1785
Cu 27.6535304736 15.0185159719 33.0685284344 1786
Cu 29.4585057189 13.213517073 33.0685284344 1787
Cu 29.4585057189 15.0185159719 31.2635170766 1788
Cu 27.6535304736 13.213517073 34.8735036796 1789
Cu 29.4585057189 15.0185159719 34.8735036796 1792
Cu 31.2635170766 13.213517073 31.2635170766 2226
Cu 31.2635170766 15.0185159719 33.0685284344 2227
Cu 33.0685284344 13.213517073 33.0685284344 2228
Cu 33.0685284344 15.0185159719 31.2635170766 2229
Cu 31.2635170766 13.213517073 34.8735036796 2230
Cu 33.0685284344 15.0185159719 34.8735036796 2233
Cu 34.8735036796 13.213517073 31.2635170766 2667
Cu 34.8735036796 15.0185159719 33.0685284344 2668
Cu 34.8735036796 13.213517073 34.8735036796 2671
Cu 36.6785150374 13.213517073 33.0685284344 2669
Cu 36.6785150374 15.0185159719 31.2635170766 2670
Cu 36.6785150374 15.0185159719 34.8735036796 2674
Cu 38.4835263951 13.213517073 31.2635170766 3108
Cu 38.4835263951 15.0185159719 33.0685284344 3109
Cu 38.4835263951 13.213517073 34.8735036796 3112
Cu 40.2885016404 13.213517073 33.0685284344 3110
Cu 40.2885016404 15.0185159719 31.2635170766 3111
Cu 40.2885016404 15.0185159719 34.8735036796 3115
Cu 42.0935129981 13.213517073 31.2635170766 3549
Cu 42.0935129981 15.0185159719 33.0685284344 3550
Cu 42.0935129981 13.213517073 34.8735036796 3553
Cu 43.8985243559 13.213517073 33.0685284344 3551
Cu 43.8985243559 15.0185159719 31.2635170766 3552
Cu 43.8985243559 15.0185159719 34.8735036796 3556
Cu 45.7034996011 13.213517073 31.2635170766 3990
Cu 45.7034996011 15.0185159719 33.0685284344 3991
Cu 45.7034996011 13.213517073 34.8735036796 3994
Cu 47.5085109588 13.213517073 33.0685284344 3992
Cu 47.5085109588 15.0185159719 31.2635170766 3993
Cu 47.5085109588 15.0185159719 34.8735036796 3997
Cu 49.3135223166 13.213517073 31.2635170766 4421
Cu 49.3135223166 15.0185159719 33.0685284344 4422
Cu 49.3135223166 13.213517073 34.8735036796 4423
Cu 13.213517073 16.8235345521 31.2635170766 63
Cu 13.213517073 18.6285097974 33.0685284344 64
Cu 15.0185159719 16.8235345521 33.0685284344 65
Cu 15.0185159719 18.6285097974 31.2635170766 66
Cu 13.213517073 16.8235345521 34.8735036796 67
Cu 15.0185159719 18.6285097974 34.8735036796 70
Cu 16.8235345521 16.8235345521 31.2635170766 504
Cu 16.8235345521 18.6285097974 33.0685284344 505
Cu 18.6285097974 16.8235345521 33.0685284344 506
Cu 18.6285097974 18.6285097974 31.2635170766 507
Cu 16.8235345521 16.8235345521 34.8735036796 508
Cu 18.6285097974 18.6285097974 34.8735036796 511
Cu 20.4335211551 16.8235345521 31.2635170766 945
Cu 20.4335211551 18.6285097974 33.0685284344 946
Cu 22.2385325129 16.8235345521 33.0685284344 947
Cu 22.2385325129 18.6285097974 31.2635170766 948
Cu 20.4335211551 16.8235345521 34.8735036796 949
Cu 22.2385325129 18.6285097974 34.8735036796 952
Cu 24.0435077581 16.8235345521 31.2635170766 1386
Cu 24.0435077581 18.6285097974 33.0685284344 1387
Cu 25.8485191159 16.8235345521 33.0685284344 1388
Cu 25.8485191159 18.6285097974 31.2635170766 1389
Cu 24.0435077581 16.8235345521 34.8735036796 1390
Cu 25.8485191159 18.6285097974 34.8735036796 1393
Cu 27.6535304736 16.8235345521 31.2635170766 1827
Cu 27.6535304736 18.6285097974 33.0685284344 1828
Cu 29.4585057189 16.8235345521 33.0685284344 1829
Cu 29.4585057189 18.6285097974 31.2635170766 1830
Cu 27.6535304736 16.8235345521 34.8735036796 1831
Cu 29.4585057189 18.6285097974 34.8735036796 1834
Cu 31.2635170766 16.8235345521 31.2635170766 2268
Cu 31.2635170766 18.6285097974 33.0685284344 2269
Cu 33.0685284344 16.8235345521 33.0685284344 2270
Cu 33.0685284344 18.6285097974 31.2635170766 2271
Cu 31.2635170766 16.8235345521 34.8735036796 2272
Cu 33.0685284344 18.6285097974 34.8735036796 2275
Cu 34.8735036796 16.8235345521 31.2635170766 2709
Cu 34.8735036796 18.6285097974 33.0685284344 2710
Cu 34.8735036796 16.8235345521 34.8735036796 2713
Cu 36.6785150374 16.8235345521 33.0685284344 2711
Cu 36.6785150374 18.6285097974 31.2635170766 2712
Cu 36.6785150374 18.6285097974 34.8735036796 2716
Cu 38.4835263951 16.8235345521 31.2635170766 3150
Cu 38.4835263951 18.6285097974 33.0685284344 3151
Cu 38.4835263951 16.8235345521 34.8735036796 3154
Cu 40.2885016404 16.8235345521 33.0685284344 3152
Cu 40.2885016404 18.6285097974 31.2635170766 3153
Cu 40.2885016404 18.6285097974 34.8735036796 3157
Cu 42.0935129981 16.8235345521 31.2635170766 3591
Cu 42.0935129981 18.6285097974 33.0685284344 3592
Cu 42.0935129981 16.8235345521 34.8735036796 3595
Cu 43.8985243559 16.8235345521 33.0685284344 3593
Cu 43.8985243559 18.6285097974 31.2635170766 3594
Cu 43.8985243559 18.6285097974 34.8735036796 3598
Cu 45.7034996011 16.8235345521 31.2635170766 4032
Cu 45.7034996011 18.6285097974 33.0685284344 4033
Cu 45.7034996011 16.8235345521 34.8735036796 4036
Cu 47.5085109588 16.8235345521 33.0685284344 4034
Cu 47.5085109588 18.6285097974 31.2635170766 4035
Cu 47.5085109588 18.6285097974 34.8735036796 4039
Cu 49.3135223166 16.8235345521 31.2635170766 4442
Cu 49.3135223166 18.6285097974 33.0685284344 4443
Cu 49.3135223166 16.8235345521 34.8735036796 4444
Cu 13.213517073 20.4335211551 31.2635170766 105
Cu 13.213517073 22.2385325129 33.0685284344 106
Cu 15.0185159719 20.4335211551 33.0685284344 107
Cu 15.0185159719 22.2385325129 31.2635170766 108
Cu 13.213517073 20.4335211551 34.8735036796 109
Cu 15.0185159719 22.2385325129 34.8735036796 112
Cu 16.8235345521 20.4335211551 31.2635170766 546
Cu 16.8235345521 22.2385325129 33.0685284344 547
Cu 18.6285097974 20.4335211551 33.0685284344 548
Cu 18.6285097974 22.2385325129 31.2635170766 549
Cu 16.8235345521 20.4335211551 34.8735036796 550
Cu 18.6285097974 22.2385325129 34.8735036796 553
Cu 20.4335211551 20.4335211551 31.2635170766 987
Cu 20.4335211551 22.2385325129 33.0685284344 988
Cu 22.2385325129 20.4335211551 33.0685284344 989
Cu 22.2385325129 22.2385325129 31.2635170766 990
Cu 20.4335211551 20.4335211551 34.8735036796 991
Cu 22.2385325129 22.2385325129 34.8735036796 994
Cu 24.0435077581 20.4335211551 31.2635170766 1428
Cu 24.0435077581 22.2385325129 33.0685284344 1429
Cu 25.8485191159 20.4335211551 33.0685284344 1430
Cu 25.8485191159 22.2385325129 31.2635170766 1431
Cu 24.0435077581 20.4335211551 34.8735036796 1432
Cu 25.8485191159 22.2385325129 34.8735036796 1435
Cu 27.6535304736 20.4335211551 31.2635170766 1869
Cu 27.6535304736 22.2385325129 33.0685284344 1870
Cu 29.4585057189 20.4335211551 33.0685284344 1871
Cu 29.4585057189 22.2385325129 31.2635170766 1872
Cu 27.6535304736 20.4335211551 34.8735036796 1873
Cu 29.4585057189 22.2385325129 34.8735036796 1876
Cu 31.2635170766 20.4335211551 31.2635170766 2310
Cu 31.2635170766 22.2385325129 33.0685284344 2311
Cu 33.0685284344 20.4335211551 33.0685284344 2312
Cu 33.0685284344 22.2385325129 31.2635170766 2313
Cu 31.2635170766 20.4335211551 34.8735036796 2314
Cu 33.0685284344 22.2385325129 34.8735036796 2317
Cu 34.8735036796 20.4335211551 31.2635170766 2751
Cu 34.8735036796 22.2385325129 33.0685284344 2752
Cu 34.8735036796 20.4335211551 34.8735036796 2755
Cu 36.6785150374 20.4335211551 33.0685284344 2753
Cu 36.6785150374 22.2385325129 31.2635170766 2754
Cu 36.6785150374 22.2385325129 34.8735036796 2758
Cu 38.4835263951 20.4335211551 31.2635170766 3192
Cu 38.4835263951 22.2385325129 33.0685284344 3193
Cu 38.4835263951 20.4335211551 34.8735036796 3196
Cu 40.2885016404 20.4335211551 33.0685284344 3194
Cu 40.2885016404 22.2385325129 31.2635170766 3195
Cu 40.2885016404 22.2385325129 34.8735036796 3199
Cu 42.0935129981 20.4335211551 31.2635170766 3633
Cu 42.0935129981 22.2385325129 33.0685284344 3634
Cu 42.0935129981 20.4335211551 34.8735036796 3637
Cu 43.8985243559 20.4335211551 33.0685284344 3635
Cu 43.8985243559 22.2385325129 31.2635170766 3636
Cu 43.8985243559 22.2385325129 34.8735036796 3640
Cu 45.7034996011 20.4335211551 31.2635170766 4074
Cu 45.7034996011 22.2385325129 33.0685284344 4075
Cu 45.7034996011 20.4335211551 34.8735036796 4078
Cu 47.5085109588 20.4335211551 33.0685284344 4076
Cu 47.5085109588 22.2385325129 31.2635170766 4077
Cu 47.5085109588 22.2385325129 34.8735036796 4081
Cu 49.3135223166 20.4335211551 31.2635170766 4463
Cu 49.3135223166 22.2385325129 33.0685284344 4464
Cu 49.3135223166 20.4335211551 34.8735036796 4465
Cu 13.213517073 24.0435077581 31.2635170766 147
Cu 13.213517073 25.8485191159 33.0685284344 148
Cu 15.0185159719 24.0435077581 33.0685284344 149
Cu 15.0185159719 25.8485191159 31.2635170766 150
Cu 13.213517073 24.0435077581 34.8735036796 151
Cu 15.0185159719 25.8485191159 34.8735036796 154
Cu 16.8235345521 24.0435077581 31.2635170766 588
Cu 16.8235345521 25.8485191159 33.0685284344 589
Cu 18.6285097974 24.0435077581 33.0685284344 590
Cu 18.6285097974 25.8485191159 31.2635170766 591
Cu 16.8235345521 24.0435077581 34.8735036796 592
Cu 18.6285097974 25.8485191159 34.8735036796 595
Cu 20.4335211551 24.0435077581 31.2635170766 1029
Cu 20.4335211551 25.8485191159 33.0685284344 1030
Cu 22.2385325129 24.0435077581 33.0685284344 1031
Cu 22.2385325129 25.8485191159 31.2635170766 1032
Cu 20.4335211551 24.0435077581 34.8735036796 1033
Cu 22.2385325129 25.8485191159 34.8735036796 1036
Cu 24.0435077581 24.0435077581 31.2635170766 1470
Cu 24.0435077581 25.8485191159 33.0685284344 1471
Cu 25.8485191159 24.0435077581 33.0685284344 1472
Cu 25.8485191159 25.8485191159 31.2635170766 1473
Cu 24.0435077581 24.0435077581 34.8735036796 1474
Cu 25.8485191159 25.8485191159 34.8735036796 1477
Cu 27.6535304736 24.0435077581 31.2635170766 1911
Cu 27.6535304736 25.8485191159 33.0685284344 1912
Cu 29.4585057189 24.0435077581 33.0685284344 1913
Cu 29.4585057189 25.8485191159 31.2635170766 1914
Cu 27.6535304736 24.0435077581 34.8735036796 1915
Cu 29.4585057189 25.8485191159 34.8735036796 1918
Cu 31.2635170766 24.0435077581 31.2635170766 2352
Cu 31.2635170766 25.8485191159 33.0685284344 2353
Cu 33.0685284344 24.0435077581 33.0685284344 2354
Cu 33.0685284344 25.8485191159 31.2635170766 2355
Cu 31.2635170766 24.0435077581 34.8735036796 2356
Cu 33.0685284344 25.8485191159 34.8735036796 2359
Cu 34.8735036796 24.0435077581 31.2635170766 2793
Cu 34.8735036796 25.8485191159 33.0685284344 2794
Cu 34.8735036796 24.0435077581 34.8735036796 2797
Cu 36.6785150374 24.0435077581 33.0685284344 2795
Cu 36.6785150374 25.8485191159 31.2635170766 2796
Cu 36.6785150374 25.8485191159 34.8735036796 2800
Cu 38.4835263951 24.0435077581 31.2635170766 3234
Cu 38.4835263951 25.8485191159 33.0685284344 3235
Cu 38.4835263951 24.0435077581 34.8735036796 3238
Cu 40.2885016404 24.0435077581 33.0685284344 3236
Cu 40.2885016404 25.8485191159 31.2635170766 3237
Cu 40.2885016404 25.8485191159 34.8735036796 3241
Cu 42.0935129981 24.0435077581 31.2635170766 3675
Cu 42.0935129981 25.8485191159 33.0685284344 3676
Cu 42.0935129981 24.0435077581 34.8735036796 3679
Cu 43.8985243559 24.0435077581 33.0685284344 3677
Cu 43.8985243559 25.8485191159 31.2635170766 3678
Cu 43.8985243559 25.8485191159 34.8735036796 3682
Cu 45.7034996011 24.0435077581 31.2635170766 4116
Cu 45.7034996011 25.8485191159 33.0685284344 4117
Cu 45.7034996011 24.0435077581 34.8735036796 4120
Cu 47.5085109588 24.0435077581 33.0685284344 4118
Cu 47.5085109588 25.8485191159 31.2635170766 4119
Cu 47.5085109588 25.8485191159 34.8735036796 4123
Cu 49.3135223166 24.0435077581 31.2635170766 4484
Cu 49.3135223166 25.8485191159 33.0685284344 4485
Cu 49.3135223166 24.0435077581 34.8735036796 4486
Cu 13.213517073 27.6535304736 31.2635170766 189
Cu 13.213517073 29.4585057189 33.0685284344 190
Cu 15.0185159719 27.6535304736 33.0685284344 191
Cu 15.0185159719 29.4585057189 31.2635170766 192
Cu 13.213517073 27.6535304736 34.8735036796 193
Cu 15.0185159719 29.4585057189 34.8735036796 196
Cu 16.8235345521 27.6535304736 31.2635170766 630
Cu 16.8235345521 29.4585057189 33.0685284344 631
Cu 18.6285097974 27.6535304736 33.0685284344 632
Cu 18.6285097974 29.4585057189 31.2635170766 633
Cu 16.8235345521 27.6535304736 34.8735036796 634
Cu 18.6285097974 29.4585057189 34.8735036796 637
Cu 20.4335211551 27.6535304736 31.2635170766 1071
Cu 20.4335211551 29.4585057189 33.0685284344 1072
Cu 22.2385325129 27.6535304736 33.0685284344 1073
Cu 22.2385325129 29.4585057189 31.2635170766 1074
Cu 20.4335211551 27.6535304736 34.8735036796 1075
Cu 22.2385325129 29.4585057189 34.8735036796 1078
Cu 24.0435077581 27.6535304736 31.2635170766 1512
Cu 24.0435077581 29.4585057189 33.0685284344 1513
Cu 25.8485191159 27.6535304736 33.0685284344 1514
Cu 25.8485191159 29.4585057189 31.2635170766 1515
Cu 24.0435077581 27.6535304736 34.8735036796 1516
Cu 25.8485191159 29.4585057189 34.8735036796 1519
Cu 27.6535304736 27.6535304736 31.2635170766 1953
Cu 27.6535304736 29.4585057189 33.0685284344 1954
Cu 29.4585057189 27.6535304736 33.0685284344 1955
Cu 29.4585057189 29.4585057189 31.2635170766 1956
Cu 27.6535304736 27.6535304736 34.8735036796 1957
Cu 29.4585057189 29.4585057189 34.8735036796 1960
Cu 31.2635170766 27.6535304736 31.2635170766 2394
Cu 31.2635170766 29.4585057189 33.0685284344 2395
Cu 33.0685284344 27.6535304736 33.0685284344 2396
Cu 33.0685284344 29.4585057189 31.2635170766 2397
Cu 31.2635170766 27.6535304736 34.8735036796 2398
Cu 33.0685284344 29.4585057189 34.8735036796 2401
Cu 34.8735036796 27.6535304736 31.2635170766 2835
Cu 34.8735036796 29.4585057189 33.0685284344 2836
Cu 34.8735036796 27.6535304736 34.8735036796 2839
Cu 36.6785150374 27.6535304736 33.0685284344 2837
Cu 36.6785150374 29.4585057189 31.2635170766 2838
Cu 36.6785150374 29.4585057189 34.8735036796 2842
Cu 38.4835263951 27.6535304736 31.2635170766 3276
Cu 38.4835263951 29.4585057189 33.0685284344 3277
Cu 38.4835263951 27.6535304736 34.8735036796 3280
Cu 40.2885016404 27.6535304736 33.0685284344 3278
Cu 40.2885016404 29.4585057189 31.2635170766 3279
Cu 40.2885016404 29.4585057189 34.8735036796 3283
Cu 42.0935129981 27.6535304736 31.2635170766 3717
Cu 42.0935129981 29.4585057189 33.0685284344 3718
Cu 42.0935129981 27.6535304736 34.8735036796 3721
Cu 43.8985243559 27.6535304736 33.0685284344 3719
Cu 43.8985243559 29.4585057189 31.2635170766 3720
Cu 43.8985243559 29.4585057189 34.8735036796 3724
Cu 45.7034996011 27.6535304736 31.2635170766 4158
Cu 45.7034996011 29.4585057189 33.0685284344 4159
Cu 45.7034996011 27.6535304736 34.8735036796 4162
Cu 47.5085109588 27.6535304736 33.0685284344 4160
Cu 47.5085109588 29.4585057189 31.2635170766 4161
Cu 47.5085109588 29.4585057189 34.8735036796 4165
Cu 49.3135223166 27.6535304736 31.2635170766 4505
Cu 49.3135223166 29.4585057189 33.0685284344 4506
Cu 49.3135223166 27.6535304736 34.8735036796 4507
Cu 13.213517073 31.2635170766 31.2635170766 231
Cu 13.213517073 33.0685284344 33.0685284344 232
Cu 15.0185159719 31.2635170766 33.0685284344 233
Cu 15.0185159719 33.0685284344 31.2635170766 234
Cu 13.213517073 31.2635170766 34.8735036796 235
Cu 15.0185159719 33.0685284344 34.8735036796 238
Cu 13.213517073 34.8735036796 31.2635170766 273
Cu 15.0185159719 34.8735036796 33.0685284344 275
Cu 13.213517073 34.8735036796 34.8735036796 277
Cu 16.8235345521 31.2635170766 31.2635170766 672
Cu 16.8235345521 33.0685284344 33.0685284344 673
Cu 18.6285097974 31.2635170766 33.0685284344 674
Cu 18.6285097974 33.0685284344 31.2635170766 675
Cu 16.8235345521 31.2635170766 34.8735036796 676
Cu 18.6285097974 33.0685284344 34.8735036796 679
Cu 16.8235345521 34.8735036796 31.2635170766 714
Cu 18.6285097974 34.8735036796 33.0685284344 716
Cu 16.8235345521 34.8735036796 34.8735036796 718
Cu 20.4335211551 31.2635170766 31.2635170766 1113
Cu 20.4335211551 33.0685284344 33.0685284344 1114
Cu 22.2385325129 31.2635170766 33.0685284344 1115
Cu 22.2385325129 33.0685284344 31.2635170766 1116
Cu 20.4335211551 31.2635170766 34.8735036796 1117
Cu 22.2385325129 33.0685284344 34.8735036796 1120
Cu 20.4335211551 34.8735036796 31.2635170766 1155
Cu 22.2385325129 34.8735036796 33.0685284344 1157
Cu 20.4335211551 34.8735036796 34.8735036796 1159
Cu 24.0435077581 31.2635170766 31.2635170766 1554
Cu 24.0435077581 33.0685284344 33.0685284344 1555
Cu 25.8485191159 31.2635170766 33.0685284344 1556
Cu 25.8485191159 33.0685284344 31.2635170766 1557
Cu 24.0435077581 31.2635170766 34.8735036796 1558
Cu 25.8485191159 33.0685284344 34.8735036796 1561
Cu 24.0435077581 34.8735036796 31.2635170766 1596
Cu 25.8485191159 34.8735036796 33.0685284344 1598
Cu 24.0435077581 34.8735036796 34.8735036796 1600
Cu 27.6535304736 31.2635170766 31.2635170766 1995
Cu 27.6535304736 33.0685284344 33.0685284344 1996
Cu 29.4585057189 31.2635170766 33.0685284344 1997
Cu 29.4585057189 33.0685284344 31.2635170766 1998
Cu 27.6535304736 31.2635170766 34.8735036796 1999
Cu 29.4585057189 33.0685284344 34.8735036796 2002
Cu 27.6535304736 34.8735036796 31.2635170766 2037
Cu 29.4585057189 34.8735036796 33.0685284344 2039
Cu 27.6535304736 34.8735036796 34.8735036796 2041
Cu 31.2635170766 31.2635170766 31.2635170766 2436
Cu 31.2635170766 33.0685284344 33.0685284344 2437
Cu 33.0685284344 31.2635170766 33.0685284344 2438
Cu 33.0685284344 33.0685284344 31.2635170766 2439
Cu 31.2635170766 31.2635170766 34.8735036796 2440
Cu 33.0685284344 33.0685284344 34.8735036796 2443
Cu 31.2635170766 34.8735036796 31.2635170766 2478
Cu 33.0685284344 34.8735036796 33.0685284344 2480
Cu 31.2635170766 34.8735036796 34.8735036796 2482
Cu 34.8735036796 31.2635170766 31.2635170766 2877
Cu 34.8735036796 33.0685284344 33.0685284344 2878
Cu 34.8735036796 31.2635170766 34.8735036796 2881
Cu 34.8735036796 34.8735036796 31.2635170766 2919
Cu 34.8735036796 34.8735036796 34.8735036796 2923
Cu 36.6785150374 31.2635170766 33.0685284344 2879
Cu 36.6785150374 33.0685284344 31.2635170766 2880
Cu 36.6785150374 33.0685284344 34.8735036796 2884
Cu 36.6785150374 34.8735036796 33.0685284344 2921
Cu 38.4835263951 31.2635170766 31.2635170766 3318
Cu 38.4835263951 33.0685284344 33.0685284344 3319
Cu 38.4835263951 31.2635170766 34.8735036796 3322
Cu 38.4835263951 34.8735036796 31.2635170766 3360
Cu 38.4835263951 34.8735036796 34.8735036796 3364
Cu 40.2885016404 31.2635170766 33.0685284344 3320
Cu 40.2885016404 33.0685284344 31.2635170766 3321
Cu 40.2885016404 33.0685284344 34.8735036796 3325
Cu 40.2885016404 34.8735036796 33.0685284344 3362
Cu 42.0935129981 31.2635170766 31.2635170766 3759
Cu 42.0935129981 33.0685284344 33.0685284344 3760
Cu 42.0935129981 31.2635170766 34.8735036796 3763
Cu 42.0935129981 34.8735036796 31.2635170766 3801
Cu 42.0935129981 34.8735036796 34.8735036796 3805
Cu 43.8985243559 31.2635170766 33.0685284344 3761
Cu 43.8985243559 33.0685284344 31.2635170766 3762
Cu 43.8985243559 33.0685284344 34.8735036796 3766
Cu 43.8985243559 34.8735036796 33.0685284344 3803
Cu 45.7034996011 31.2635170766 31.2635170766 4200
Cu 45.7034996011 33.0685284344 33.0685284344 4201
Cu 45.7034996011 31.2635170766 34.8735036796 4204
Cu 45.7034996011 34.8735036796 31.2635170766 4242
Cu 45.7034996011 34.8735036796 34.8735036796 4246
Cu 47.5085109588 31.2635170766 33.0685284344 4202
Cu 47.5085109588 33.0685284344 31.2635170766 4203
Cu 47.5085109588 33.0685284344 34.8735036796 4207
Cu 47.5085109588 34.8735036796 33.0685284344 4244
Cu 49.3135223166 31.2635170766 31.2635170766 4526
Cu 49.3135223166 33.0685284344 33.0685284344 4527
Cu 49.3135223166 31.2635170766 34.8735036796 4528
Cu 49.3135223166 34.8735036796 31.2635170766 4547
Cu 49.3135223166 34.8735036796 34.8735036796 4549
Cu 13.213517073 36.6785150374 33.0685284344 274
Cu 15.0185159719 36.6785150374 31.2635170766 276
Cu 15.0185159719 36.6785150374 34.8735036796 280
Cu 13.213517073 38.4835263951 31.2635170766 315
Cu 15.0185159719 38.4835263951 33.0685284344 317
Cu 13.213517073 38.4835263951 34.8735036796 319
Cu 16.8235345521 36.6785150374 33.0685284344 715
Cu 18.6285097974 36.6785150374 31.2635170766 717
Cu 18.6285097974 36.6785150374 34.8735036796 721
Cu 16.8235345521 38.4835263951 31.2635170766 756
Cu 18.6285097974 38.4835263951 33.0685284344 758
Cu 16.8235345521 38.4835263951 34.8735036796 760
Cu 20.4335211551 36.6785150374 33.0685284344 1156
Cu 22.2385325129 36.6785150374 31.2635170766 1158
Cu 22.2385325129 36.6785150374 34.8735036796 1162
Cu 20.4335211551 38.4835263951 31.2635170766 1197
Cu 22.2385325129 38.4835263951 33.0685284344 1199
Cu 20.4335211551 38.4835263951 34.8735036796 1201
Cu 24.0435077581 36.6785150374 33.0685284344 1597
Cu 25.8485191159 36.6785150374 31.2635170766 1599
Cu 25.8485191159 36.6785150374 34.8735036796 1603
Cu 24.0435077581 38.4835263951 31.2635170766 1638
Cu 25.8485191159 38.4835263951 33.0685284344 1640
Cu 24.0435077581 38.4835263951 34.8735036796 1642
Cu 27.6535304736 36.6785150374 33.0685284344 2038
Cu 29.4585057189 36.6785150374 31.2635170766 2040
Cu 29.4585057189 36.6785150374 34.8735036796 2044
Cu 27.6535304736 38.4835263951 31.2635170766 2079
Cu 29.4585057189 38.4835263951 33.0685284344 2081
Cu 27.6535304736 38.4835263951 34.8735036796 2083
Cu 31.2635170766 36.6785150374 33.0685284344 2479
Cu 33.0685284344 36.6785150374 31.2635170766 2481
Cu 33.0685284344 36.6785150374 34.8735036796 2485
Cu 31.2635170766 38.4835263951 31.2635170766 2520
Cu 33.0685284344 38.4835263951 33.0685284344 2522
Cu 31.2635170766 38.4835263951 34.8735036796 2524
Cu 34.8735036796 36.6785150374 33.0685284344 2920
Cu 34.8735036796 38.4835263951 31.2635170766 2961
Cu 34.8735036796 38.4835263951 34.8735036796 2965
Cu 36.6785150374 36.6785150374 31.2635170766 2922
Cu 36.6785150374 36.6785150374 34.8735036796 2926
Cu 36.6785150374 38.4835263951 33.0685284344 2963
Cu 38.4835263951 36.6785150374 33.0685284344 3361
Cu 38.4835263951 38.4835263951 31.2635170766 3402
Cu 38.4835263951 38.4835263951 34.8735036796 3406
Cu 40.2885016404 36.6785150374 31.2635170766 3363
Cu 40.2885016404 36.6785150374 34.8735036796 3367
Cu 40.2885016404 38.4835263951 33.0685284344 3404
Cu 42.0935129981 36.6785150374 33.0685284344 3802
Cu 42.0935129981 38.4835263951 31.2635170766 3843
Cu 42.0935129981 38.4835263951 34.8735036796 3847
Cu 43.8985243559 36.6785150374 31.2635170766 3804
Cu 43.8985243559 36.6785150374 34.8735036796 3808
Cu 43.8985243559 38.4835263951 33.0685284344 3845
Cu 45.7034996011 36.6785150374 33.0685284344 4243
Cu 45.7034996011 38.4835263951 31.2635170766 4284
Cu 45.7034996011 38.4835263951 34.8735036796 4288
Cu 47.5085109588 36.6785150374 31.2635170766 4245
Cu 47.5085109588 36.6785150374 34.8735036796 4249
Cu 47.5085109588 38.4835263951 33.0685284344 4286
Cu 49.3135223166 36.6785150374 33.0685284344 4548
Cu 49.3135223166 38.4835263951 31.2635170766 4568
Cu 49.3135223166 38.4835263951 34.8735036796 4570
Cu 13.213517073 40.2885016404 33.0685284344 316
Cu 15.0185159719 40.2885016404 31.2635170766 318
Cu 15.0185159719 40.2885016404 34.8735036796 322
Cu 13.213517073 42.0935129981 31.2635170766 357
Cu 15.0185159719 42.0935129981 33.0685284344 359
Cu 13.213517073 42.0935129981 34.8735036796 361
Cu 16.8235345521 40.2885016404 33.0685284344 757
Cu 18.6285097974 40.2885016404 31.2635170766 759
Cu 18.6285097974 40.2885016404 34.8735036796 763
Cu 16.8235345521 42.0935129981 31.2635170766 798
Cu 18.6285097974 42.0935129981 33.0685284344 800
Cu 16.8235345521 42.0935129981 34.8735036796 802
Cu 20.4335211551 40.2885016404 33.0685284344 1198
Cu 22.2385325129 40.2885016404 31.2635170766 1200
Cu 22.2385325129 40.2885016404 34.8735036796 1204
Cu 20.4335211551 42.0935129981 31.2635170766 1239
Cu 22.2385325129 42.0935129981 33.0685284344 1241
Cu 20.4335211551 42.0935129981 34.8735036796 1243
Cu 24.0435077581 40.2885016404 33.0685284344 1639
Cu 25.8485191159 40.2885016404 31.2635170766 1641
Cu 25.8485191159 40.2885016404 34.8735036796 1645
Cu 24.0435077581 42.0935129981 31.2635170766 1680
Cu 25.8485191159 42.0935129981 33.0685284344 1682
Cu 24.0435077581 42.0935129981 34.8735036796 1684
Cu 27.6535304736 40.2885016404 33.0685284344 2080
Cu 29.4585057189 40.2885016404 31.2635170766 2082
Cu 29.4585057189 40.2885016404 34.8735036796 2086
Cu 27.6535304736 42.0935129981 31.2635170766 2121
Cu 29.4585057189 42.0935129981 33.0685284344 2123
Cu 27.6535304736 42.0935129981 34.8735036796 2125
Cu 31.2635170766 40.2885016404 33.0685284344 2521
Cu 33.0685284344 40.2885016404 31.2635170766 2523
Cu 33.0685284344 40.2885016404 34.8735036796 2527
Cu 31.2635170766 42.0935129981 31.2635170766 2562
Cu 33.0685284344 42.0935129981 33.0685284344 2564
Cu 31.2635170766 42.0935129981 34.8735036796 2566
Cu 34.8735036796 40.2885016404 33.0685284344 2962
Cu 34.8735036796 42.0935129981 31.2635170766 3003
Cu 34.8735036796 42.0935129981 34.8735036796 3007
Cu 36.6785150374 40.2885016404 31.2635170766 2964
Cu 36.6785150374 40.2885016404 34.8735036796 2968
Cu 36.6785150374 42.0935129981 33.0685284344 3005
Cu 38.4835263951 40.2885016404 33.0685284344 3403
Cu 38.4835263951 42.0935129981 31.2635170766 3444
Cu 38.4835263951 42.0935129981 34.8735036796 3448
Cu 40.2885016404 40.2885016404 31.2635170766 3405
Cu 40.2885016404 40.2885016404 34.8735036796 3409
Cu 40.2885016404 42.0935129981 33.0685284344 3446
Cu 42.0935129981 40.2885016404 33.0685284344 3844
Cu 42.0935129981 42.0935129981 31.2635170766 3885
Cu 42.0935129981 42.0935129981 34.8735036796 3889
Cu 43.8985243559 40.2885016404 31.2635170766 3846
Cu 43.8985243559 40.2885016404 34.8735036796 3850
Cu 43.8985243559 42.0935129981 33.0685284344 3887
Cu 45.7034996011 40.2885016404 33.0685284344 4285
Cu 45.7034996011 42.0935129981 31.2635170766 4326
Cu 45.7034996011 42.0935129981 34.8735036796 4330
Cu 47.5085109588 40.2885016404 31.2635170766 4287
Cu 47.5085109588 40.2885016404 34.8735036796 4291
Cu 47.5085109588 42.0935129981 33.0685284344 4328
Cu 49.3135223166 40.2885016404 33.0685284344 4569
Cu 49.3135223166 42.0935129981 31.2635170766 4589
Cu 49.3135223166 42.0935129981 34.8735036796 4591
Cu 13.213517073 43.8985243559 33.0685284344 358
Cu 15.0185159719 43.8985243559 31.2635170766 360
Cu 15.0185159719 43.8985243559 34.8735036796 364
Cu 13.213517073 45.7034996011 31.2635170766 399
Cu 15.0185159719 45.7034996011 33.0685284344 401
Cu 13.213517073 45.7034996011 34.8735036796 403
Cu 16.8235345521 43.8985243559 33.0685284344 799
Cu 18.6285097974 43.8985243559 31.2635170766 801
Cu 18.6285097974 43.8985243559 34.8735036796 805
Cu 16.8235345521 45.7034996011 31.2635170766 840
Cu 18.6285097974 45.7034996011 33.0685284344 842
Cu 16.8235345521 45.7034996011 34.8735036796 844
Cu 20.4335211551 43.8985243559 33.0685284344 1240
Cu 22.2385325129 43.8985243559 31.2635170766 1242
Cu 22.2385325129 43.8985243559 34.8735036796 1246
Cu 20.4335211551 45.7034996011 31.2635170766 1281
Cu 22.2385325129 45.7034996011 33.0685284344 1283
Cu 20.4335211551 45.7034996011 34.8735036796 1285
Cu 24.0435077581 43.8985243559 33.0685284344 1681
Cu 25.8485191159 43.8985243559 31.2635170766 1683
Cu 25.8485191159 43.8985243559 34.8735036796 1687
Cu 24.0435077581 45.7034996011 31.2635170766 1722
Cu 25.8485191159 45.7034996011 33.0685284344 1724
Cu 24.0435077581 45.7034996011 34.8735036796 1726
Cu 27.6535304736 43.8985243559 33.0685284344 2122
Cu 29.4585057189 43.8985243559 31.2635170766 2124
Cu 29.4585057189 43.8985243559 34.8735036796 2128
Cu 27.6535304736 45.7034996011 31.2635170766 2163
Cu 29.4585057189 45.7034996011 33.0685284344 2165
Cu 27.6535304736 45.7034996011 34.8735036796 2167
Cu 31.2635170766 43.8985243559 33.0685284344 2563
Cu 33.0685284344 43.8985243559 31.2635170766 2565
Cu 33.0685284344 43.8985243559 34.8735036796 2569
Cu 31.2635170766 45.7034996011 31.2635170766 2604
Cu 33.0685284344 45.7034996011 33.0685284344 2606
Cu 31.2635170766 45.7034996011 34.8735036796 2608
Cu 34.8735036796 43.8985243559 33.0685284344 3004
Cu 34.8735036796 45.7034996011 31.2635170766 3045
Cu 34.8735036796 45.7034996011 34.8735036796 3049
Cu 36.6785150374 43.8985243559 31.2635170766 3006
Cu 36.6785150374 43.8985243559 34.8735036796 3010
Cu 36.6785150374 45.7034996011 33.0685284344 3047
Cu 38.4835263951 43.8985243559 33.0685284344 3445
Cu 38.4835263951 45.7034996011 31.2635170766 3486
Cu 38.4835263951 45.7034996011 34.8735036796 3490
Cu 40.2885016404 43.8985243559 31.2635170766 3447
Cu 40.2885016404 43.8985243559 34.8735036796 3451
Cu 40.2885016404 45.7034996011 33.0685284344 3488
Cu 42.0935129981 43.8985243559 33.0685284344 3886
Cu 42.0935129981 45.7034996011 31.2635170766 3927
Cu 42.0935129981 45.7034996011 34.8735036796 3931
Cu 43.8985243559 43.8985243559 31.2635170766 3888
Cu 43.8985243559 43.8985243559 34.8735036796 3892
Cu 43.8985243559 45.7034996011 33.0685284344 3929
Cu 45.7034996011 43.8985243559 33.0685284344 4327
Cu 45.7034996011 45.7034996011 31.2635170766 4368
Cu 45.7034996011 45.7034996011 34.8735036796 4372
Cu 47.5085109588 43.8985243559 31.2635170766 4329
Cu 47.5085109588 43.8985243559 34.8735036796 4333
Cu 47.5085109588 45.7034996011 33.0685284344 4370
Cu 49.3135223166 43.8985243559 33.0685284344 4590
Cu 49.3135223166 45.7034996011 31.2635170766 4610
Cu 49.3135223166 45.7034996011 34.8735036796 4612
Cu 13.213517073 47.5085109588 33.0685284344 400
Cu 15.0185159719 47.5085109588 31.2635170766 402
Cu 15.0185159719 47.5085109588 34.8735036796 406
Cu 13.213517073 49.3135223166 31.2635170766 431
Cu 15.0185159719 49.3135223166 33.0685284344 432
Cu 13.213517073 49.3135223166 34.8735036796 433
Cu 16.8235345521 47.5085109588 33.0685284344 841
Cu 18.6285097974 47.5085109588 31.2635170766 843
Cu 18.6285097974 47.5085109588 34.8735036796 847
Cu 16.8235345521 49.3135223166 31.2635170766 872
Cu 18.6285097974 49.3135223166 33.0685284344 873
Cu 16.8235345521 49.3135223166 34.8735036796 874
Cu 20.4335211551 47.5085109588 33.0685284344 1282
Cu 22.2385325129 47.5085109588 31.2635170766 1284
Cu 22.2385325129 47.5085109588 34.8735036796 1288
Cu 20.4335211551 49.3135223166 31.2635170766 1313
Cu 22.2385325129 49.3135223166 33.0685284344 1314
Cu 20.4335211551 49.3135223166 34.8735036796 1315
Cu 24.0435077581 47.5085109588 33.0685284344 1723
Cu 25.8485191159 47.5085109588 31.2635170766 1725
Cu 25.8485191159 47.5085109588 34.8735036796 1729
Cu 24.0435077581 49.3135223166 31.2635170766 1754
Cu 25.8485191159 49.3135223166 33.0685284344 1755
Cu 24.0435077581 49.3135223166 34.8735036796 1756
Cu 27.6535304736 47.5085109588 33.0685284344 2164
Cu 29.4585057189 47.5085109588 31.2635170766 2166
Cu 29.4585057189 47.5085109588 34.8735036796 2170
Cu 27.6535304736 49.3135223166 31.2635170766 2195
Cu 29.4585057189 49.3135223166 33.0685284344 2196
Cu 27.6535304736 49.3135223166 34.8735036796 2197
Cu 31.2635170766 47.5085109588 33.0685284344 2605
Cu 33.0685284344 47.5085109588 31.2635170766 2607
Cu 33.0685284344 47.5085109588 34.8735036796 2611
Cu 31.2635170766 49.3135223166 31.2635170766 2636
Cu 33.0685284344 49.3135223166 33.0685284344 2637
Cu 31.2635170766 49.3135223166 34.8735036796 2638
Cu 34.8735036796 47.5085109588 33.0685284344 3046
Cu 34.8735036796 49.3135223166 31.2635170766 3077
Cu 34.8735036796 49.3135223166 34.8735036796 3079
Cu 36.6785150374 47.5085109588 31.2635170766 3048
Cu 36.6785150374 47.5085109588 34.8735036796 3052
Cu 36.6785150374 49.3135223166 33.0685284344 3078
Cu 38.4835263951 47.5085109588 33.0685284344 3487
Cu 38.4835263951 49.3135223166 31.2635170766 3518
Cu 38.4835263951 49.3135223166 34.8735036796 3520
Cu 40.2885016404 47.5085109588 31.2635170766 3489
Cu 40.2885016404 47.5085109588 34.8735036796 3493
Cu 40.2885016404 49.3135223166 33.0685284344 3519
Cu 42.0935129981 47.5085109588 33.0685284344 3928
Cu 42.0935129981 49.3135223166 31.2635170766 3959
Cu 42.0935129981 49.3135223166 34.8735036796 3961
Cu 43.8985243559 47.5085109588 31.2635170766 3930
Cu 43.8985243559 47.5085109588 34.8735036796 3934
Cu 43.8985243559 49.3135223166 33.0685284344 3960
Cu 45.7034996011 47.5085109588 33.0685284344 4369
Cu 45.7034996011 49.3135223166 31.2635170766 4400
Cu 45.7034996011 49.3135223166 34.8735036796 4402
Cu 47.5085109588 47.5085109588 31.2635170766 4371
Cu 47.5085109588 47.5085109588 34.8735036796 4375
Cu 47.5085109588 49.3135223166 33.0685284344 4401
Cu 49.3135223166 47.5085109588 33.0685284344 4611
Cu 49.3135223166 49.3135223166 31.2635170766 4626
Cu 49.3135223166 49.3135223166 34.8735036796 4627
Cu 13.213517073 15.0185159719 36.6785150374 26
Cu 15.0185159719 13.213517073 36.6785150374 27
Cu 13.213517073 13.213517073 38.4835263951 29
Cu 15.0185159719 15.0185159719 38.4835263951 32
Cu 16.8235345521 15.0185159719 36.6785150374 467
Cu 18.6285097974 13.213517073 36.6785150374 468
Cu 16.8235345521 13.213517073 38.4835263951 470
Cu 18.6285097974 15.0185159719 38.4835263951 473
Cu 20.4335211551 15.0185159719 36.6785150374 908
Cu 22.2385325129 13.213517073 36.6785150374 909
Cu 20.4335211551 13.213517073 38.4835263951 911
Cu 22.2385325129 15.0185159719 38.4835263951 914
Cu 24.0435077581 15.0185159719 36.6785150374 1349
Cu 25.8485191159 13.213517073 36.6785150374 1350
Cu 24.0435077581 13.213517073 38.4835263951 1352
Cu 25.8485191159 15.0185159719 38.4835263951 1355
Cu 27.6535304736 15.0185159719 36.6785150374 1790
Cu 29.4585057189 13.213517073 36.6785150374 1791
Cu 27.6535304736 13.213517073 38.4835263951 1793
Cu 29.4585057189 15.0185159719 38.4835263951 1796
Cu 31.2635170766 15.0185159719 36.6785150374 2231
Cu 33.0685284344 13.213517073 36.6785150374 2232
Cu 31.2635170766 13.213517073 38.4835263951 2234
Cu 33.0685284344 15.0185159719 38.4835263951 2237
Cu 34.8735036796 15.0185159719 36.6785150374 2672
Cu 34.8735036796 13.213517073 38.4835263951 2675
Cu 36.6785150374 13.213517073 36.6785150374 2673
Cu 36.6785150374 15.0185159719 38.4835263951 2678
Cu 38.4835263951 15.0185159719 36.6785150374 3113
Cu 38.4835263951 13.213517073 38.4835263951 3116
Cu 40.2885016404 13.213517073 36.6785150374 3114
Cu 40.2885016404 15.0185159719 38.4835263951 3119
Cu 42.0935129981 15.0185159719 36.6785150374 3554
Cu 42.0935129981 13.213517073 38.4835263951 3557
Cu 43.8985243559 13.213517073 36.6785150374 3555
Cu 43.8985243559 15.0185159719 38.4835263951 3560
Cu 45.7034996011 15.0185159719 36.6785150374 3995
Cu 45.7034996011 13.213517073 38.4835263951 3998
Cu 47.5085109588 13.213517073 36.6785150374 3996
Cu 47.5085109588 15.0185159719 38.4835263951 4001
Cu 49.3135223166 15.0185159719 36.6785150374 4424
Cu 49.3135223166 13.213517073 38.4835263951 4425
Cu 13.213517073 18.6285097974 36.6785150374 68
Cu 15.0185159719 16.8235345521 36.6785150374 69
Cu 13.213517073 16.8235345521 38.4835263951 71
Cu 15.0185159719 18.6285097974 38.4835263951 74
Cu 16.8235345521 18.6285097974 36.6785150374 509
Cu 18.6285097974 16.8235345521 36.6785150374 510
Cu 16.8235345521 16.8235345521 38.4835263951 512
Cu 18.6285097974 18.6285097974 38.4835263951 515
Cu 20.4335211551 18.6285097974 36.6785150374 950
Cu 22.2385325129 16.8235345521 36.6785150374 951
Cu 20.4335211551 16.8235345521 38.4835263951 953
Cu 22.2385325129 18.6285097974 38.4835263951 956
Cu 24.0435077581 18.6285097974 36.6785150374 1391
Cu 25.8485191159 16.8235345521 36.6785150374 1392
Cu 24.0435077581 16.8235345521 38.4835263951 1394
Cu 25.8485191159 18.6285097974 38.4835263951 1397
Cu 27.6535304736 18.6285097974 36.6785150374 1832
Cu 29.4585057189 16.8235345521 36.6785150374 1833
Cu 27.6535304736 16.8235345521 38.4835263951 1835
Cu 29.4585057189 18.6285097974 38.4835263951 1838
Cu 31.2635170766 18.6285097974 36.6785150374 2273
Cu 33.0685284344 16.8235345521 36.6785150374 2274
Cu 31.2635170766 16.8235345521 38.4835263951 2276
Cu 33.0685284344 18.6285097974 38.4835263951 2279
Cu 34.8735036796 18.6285097974 36.6785150374 2714
Cu 34.8735036796 16.8235345521 38.4835263951 2717
Cu 36.6785150374 16.8235345521 36.6785150374 2715
Cu 36.6785150374 18.6285097974 38.4835263951 2720
Cu 38.4835263951 18.6285097974 36.6785150374 3155
Cu 38.4835263951 16.8235345521 38.4835263951 3158
Cu 40.2885016404 16.8235345521 36.6785150374 3156
Cu 40.2885016404 18.6285097974 38.4835263951 3161
Cu 42.0935129981 18.6285097974 36.6785150374 3596
Cu 42.0935129981 16.8235345521 38.4835263951 3599
Cu 43.8985243559 16.8235345521 36.6785150374 3597
Cu 43.8985243559 18.6285097974 38.4835263951 3602
Cu 45.7034996011 18.6285097974 36.6785150374 4037
Cu 45.7034996011 16.8235345521 38.4835263951 4040
Cu 47.5085109588 16.8235345521 36.6785150374 4038
Cu 47.5085109588 18.6285097974 38.4835263951 4043
Cu 49.3135223166 18.6285097974 36.6785150374 4445
Cu 49.3135223166 16.8235345521 38.4835263951 4446
Cu 13.213517073 22.2385325129 36.6785150374 110
Cu 15.0185159719 20.4335211551 36.6785150374 111
Cu 13.213517073 20.4335211551 38.4835263951 113
Cu 15.0185159719 22.2385325129 38.4835263951 116
Cu 16.8235345521 22.2385325129 36.6785150374 551
Cu 18.6285097974 20.4335211551 36.6785150374 552
Cu 16.8235345521 20.4335211551 38.4835263951 554
Cu 18.6285097974 22.2385325129 38.4835263951 557
Cu 20.4335211551 22.2385325129 36.6785150374 992
Cu 22.2385325129 20.4335211551 36.6785150374 993
Cu 20.4335211551 20.4335211551 38.4835263951 995
Cu 22.2385325129 22.2385325129 38.4835263951 998
Cu 24.0435077581 22.2385325129 36.6785150374 1433
Cu 25.8485191159 20.4335211551 36.6785150374 1434
Cu 24.0435077581 20.4335211551 38.4835263951 1436
Cu 25.8485191159 22.2385325129 38.4835263951 1439
Cu 27.6535304736 22.2385325129 36.6785150374 1874
Cu 29.4585057189 20.4335211551 36.6785150374 1875
Cu 27.6535304736 20.4335211551 38.4835263951 1877
Cu 29.4585057189 22.2385325129 38.4835263951 1880
Cu 31.2635170766 22.2385325129 36.6785150374 2315
Cu 33.0685284344 20.4335211551 36.6785150374 2316
Cu 31.2635170766 20.4335211551 38.4835263951 2318
Cu 33.0685284344 22.2385325129 38.4835263951 2321
Cu 34.8735036796 22.2385325129 36.6785150374 2756
Cu 34.8735036796 20.4335211551 38.4835263951 2759
Cu 36.6785150374 20.4335211551 36.6785150374 2757
Cu 36.6785150374 22.2385325129 38.4835263951 2762
Cu 38.4835263951 22.2385325129 36.6785150374 3197
Cu 38.4835263951 20.4335211551 38.4835263951 3200
Cu 40.2885016404 20.4335211551 36.6785150374 3198
Cu 40.2885016404 22.2385325129 38.4835263951 3203
Cu 42.0935129981 22.2385325129 36.6785150374 3638
Cu 42.0935129981 20.4335211551 38.4835263951 3641
Cu 43.8985243559 20.4335211551 36.6785150374 3639
Cu 43.8985243559 22.2385325129 38.4835263951 3644
Cu 45.7034996011 22.2385325129 36.6785150374 4079
Cu 45.7034996011 20.4335211551 38.4835263951 4082
Cu 47.5085109588 20.4335211551 36.6785150374 4080
Cu 47.5085109588 22.2385325129 38.4835263951 4085
Cu 49.3135223166 22.2385325129 36.6785150374 4466
Cu 49.3135223166 20.4335211551 38.4835263951 4467
Cu 13.213517073 25.8485191159 36.6785150374 152
Cu 15.0185159719 24.0435077581 36.6785150374 153
Cu 13.213517073 24.0435077581 38.4835263951 155
Cu 15.0185159719 25.8485191159 38.4835263951 158
Cu 16.8235345521 25.8485191159 36.6785150374 593
Cu 18.6285097974 24.0435077581 36.6785150374 594
Cu 16.8235345521 24.0435077581 38.4835263951 596
Cu 18.6285097974 25.8485191159 38.4835263951 599
Cu 20.4335211551 25.8485191159 36.6785150374 1034
Cu 22.2385325129 24.0435077581 36.6785150374 1035
Cu 20.4335211551 24.0435077581 38.4835263951 1037
Cu 22.2385325129 25.8485191159 38.4835263951 1040
Cu 24.0435077581 25.8485191159 36.6785150374 1475
Cu 25.8485191159 24.0435077581 36.6785150374 1476
Cu 24.0435077581 24.0435077581 38.4835263951 1478
Cu 25.8485191159 25.8485191159 38.4835263951 1481
Cu 27.6535304736 25.8485191159 36.6785150374 1916
Cu 29.4585057189 24.0435077581 36.6785150374 1917
Cu 27.6535304736 24.0435077581 38.4835263951 1919
Cu 29.4585057189 25.8485191159 38.4835263951 1922
Cu 31.2635170766 25.8485191159 36.6785150374 2357
Cu 33.0685284344 24.0435077581 36.6785150374 2358
Cu 31.2635170766 24.0435077581 38.4835263951 2360
Cu 33.0685284344 25.8485191159 38.4835263951 2363
Cu 34.8735036796 25.8485191159 36.6785150374 2798
Cu 34.8735036796 24.0435077581 38.4835263951 2801
Cu 36.6785150374 24.0435077581 36.6785150374 2799
Cu 36.6785150374 25.8485191159 38.4835263951 2804
Cu 38.4835263951 25.8485191159 36.6785150374 3239
Cu 38.4835263951 24.0435077581 38.4835263951 3242
Cu 40.2885016404 24.0435077581 36.6785150374 3240
Cu 40.2885016404 25.8485191159 38.4835263951 3245
Cu 42.0935129981 25.8485191159 36.6785150374 3680
Cu 42.0935129981 24.0435077581 38.4835263951 3683
Cu 43.8985243559 24.0435077581 36.6785150374 3681
Cu 43.8985243559 25.8485191159 38.4835263951 3686
Cu 45.7034996011 25.8485191159 36.6785150374 4121
Cu 45.7034996011 24.0435077581 38.4835263951 4124
Cu 47.5085109588 24.0435077581 36.6785150374 4122
Cu 47.5085109588 25.8485191159 38.4835263951 4127
Cu 49.3135223166 25.8485191159 36.6785150374 4487
Cu 49.3135223166 24.0435077581 38.4835263951 4488
Cu 13.213517073 29.4585057189 36.6785150374 194
Cu 15.0185159719 27.6535304736 36.6785150374 195
Cu 13.213517073 27.6535304736 38.4835263951 197
Cu 15.0185159719 29.4585057189 38.4835263951 200
Cu 16.8235345521 29.4585057189 36.6785150374 635
Cu 18.6285097974 27.6535304736 36.6785150374 636
Cu 16.8235345521 27.6535304736 38.4835263951 638
Cu 18.6285097974 29.4585057189 38.4835263951 641
Cu 20.4335211551 29.4585057189 36.6785150374 1076
Cu 22.2385325129 27.6535304736 36.6785150374 1077
Cu 20.4335211551 27.6535304736 38.4835263951 1079
Cu 22.2385325129 29.4585057189 38.4835263951 1082
Cu 24.0435077581 29.4585057189 36.6785150374 1517
Cu 25.8485191159 27.6535304736 36.6785150374 1518
Cu 24.0435077581 27.6535304736 38.4835263951 1520
Cu 25.8485191159 29.4585057189 38.4835263951 1523
Cu 27.6535304736 29.4585057189 36.6785150374 1958
Cu 29.4585057189 27.6535304736 36.6785150374 1959
Cu 27.6535304736 27.6535304736 38.4835263951 1961
Cu 29.4585057189 29.4585057189 38.4835263951 1964
Cu 31.2635170766 29.4585057189 36.6785150374 2399
Cu 33.0685284344 27.6535304736 36.6785150374 2400
Cu 31.2635170766 27.6535304736 38.4835263951 2402
Cu 33.0685284344 29.4585057189 38.4835263951 2405
Cu 34.8735036796 29.4585057189 36.6785150374 2840
Cu 34.8735036796 27.6535304736 38.4835263951 2843
Cu 36.6785150374 27.6535304736 36.6785150374 2841
Cu 36.6785150374 29.4585057189 38.4835263951 2846
Cu 38.4835263951 29.4585057189 36.6785150374 3281
Cu 38.4835263951 27.6535304736 38.4835263951 3284
Cu 40.2885016404 27.6535304736 36.6785150374 3282
Cu 40.2885016404 29.4585057189 38.4835263951 3287
Cu 42.0935129981 29.4585057189 36.6785150374 3722
Cu 42.0935129981 27.6535304736 38.4835263951 3725
Cu 43.8985243559 27.6535304736 36.6785150374 3723
Cu 43.8985243559 29.4585057189 38.4835263951 3728
Cu 45.7034996011 29.4585057189 36.6785150374 4163
Cu 45.7034996011 27.6535304736 38.4835263951 4166
Cu 47.5085109588 27.6535304736 36.6785150374 4164
Cu 47.5085109588 29.4585057189 38.4835263951 4169
Cu 49.3135223166 29.4585057189 36.6785150374 4508
Cu 49.3135223166 27.6535304736 38.4835263951 4509
Cu 13.213517073 33.0685284344 36.6785150374 236
Cu 15.0185159719 31.2635170766 36.6785150374 237
Cu 13.213517073 31.2635170766 38.4835263951 239
Cu 15.0185159719 33.0685284344 38.4835263951 242
Cu 15.0185159719 34.8735036796 36.6785150374 279
Cu 13.213517073 34.8735036796 38.4835263951 281
Cu 16.8235345521 33.0685284344 36.6785150374 677
Cu 18.6285097974 31.2635170766 36.6785150374 678
Cu 16.8235345521 31.2635170766 38.4835263951 680
Cu 18.6285097974 33.0685284344 38.4835263951 683
Cu 18.6285097974 34.8735036796 36.6785150374 720
Cu 16.8235345521 34.8735036796 38.4835263951 722
Cu 20.4335211551 33.0685284344 36.6785150374 1118
Cu 22.2385325129 31.2635170766 36.6785150374 1119
Cu 20.4335211551 31.2635170766 38.4835263951 1121
Cu 22.2385325129 33.0685284344 38.4835263951 1124
Cu 22.2385325129 34.8735036796 36.6785150374 1161
Cu 20.4335211551 34.8735036796 38.4835263951 1163
Cu 24.0435077581 33.0685284344 36.6785150374 1559
Cu 25.8485191159 31.2635170766 36.6785150374 1560
Cu 24.0435077581 31.2635170766 38.4835263951 1562
Cu 25.8485191159 33.0685284344 38.4835263951 1565
Cu 25.8485191159 34.8735036796 36.6785150374 1602
Cu 24.0435077581 34.8735036796 38.4835263951 1604
Cu 27.6535304736 33.0685284344 36.6785150374 2000
Cu 29.4585057189 31.2635170766 36.6785150374 2001
Cu 27.6535304736 31.2635170766 38.4835263951 2003
Cu 29.4585057189 33.0685284344 38.4835263951 2006
Cu 29.4585057189 34.8735036796 36.6785150374 2043
Cu 27.6535304736 34.8735036796 38.4835263951 2045
Cu 31.2635170766 33.0685284344 36.6785150374 2441
Cu 33.0685284344 31.2635170766 36.6785150374 2442
Cu 31.2635170766 31.2635170766 38.4835263951 2444
Cu 33.0685284344 33.0685284344 38.4835263951 2447
Cu 33.0685284344 34.8735036796 36.6785150374 2484
Cu 31.2635170766 34.8735036796 38.4835263951 2486
Cu 34.8735036796 33.0685284344 36.6785150374 2882
Cu 34.8735036796 31.2635170766 38.4835263951 2885
Cu 34.8735036796 34.8735036796 38.4835263951 2927
Cu 36.6785150374 31.2635170766 36.6785150374 2883
Cu 36.6785150374 33.0685284344 38.4835263951 2888
Cu 36.6785150374 34.8735036796 36.6785150374 2925
Cu 38.4835263951 33.0685284344 36.6785150374 3323
Cu 38.4835263951 31.2635170766 38.4835263951 3326
Cu 38.4835263951 34.8735036796 38.4835263951 3368
Cu 40.2885016404 31.2635170766 36.6785150374 3324
Cu 40.2885016404 33.0685284344 38.4835263951 3329
Cu 40.2885016404 34.8735036796 36.6785150374 3366
Cu 42.0935129981 33.0685284344 36.6785150374 3764
Cu 42.0935129981 31.2635170766 38.4835263951 3767
Cu 42.0935129981 34.8735036796 38.4835263951 3809
Cu 43.8985243559 31.2635170766 36.6785150374 3765
Cu 43.8985243559 33.0685284344 38.4835263951 3770
Cu 43.8985243559 34.8735036796 36.6785150374 3807
Cu 45.7034996011 33.0685284344 36.6785150374 4205
Cu 45.7034996011 31.2635170766 38.4835263951 4208
Cu 45.7034996011 34.8735036796 38.4835263951 4250
Cu 47.5085109588 31.2635170766 36.6785150374 4206
Cu 47.5085109588 33.0685284344 38.4835263951 4211
Cu 47.5085109588 34.8735036796 36.6785150374 4248
Cu 49.3135223166 33.0685284344 36.6785150374 4529
Cu 49.3135223166 31.2635170766 38.4835263951 4530
Cu 49.3135223166 34.8735036796 38.4835263951 4551
Cu 13.213517073 36.6785150374 36.6785150374 278
Cu 15.0185159719 36.6785150374 38.4835263951 284
Cu 15.0185159719 38.4835263951 36.6785150374 321
Cu 13.213517073 38.4835263951 38.4835263951 323
Cu 16.8235345521 36.6785150374 36.6785150374 719
Cu 18.6285097974 36.6785150374 38.4835263951 725
Cu 18.6285097974 38.4835263951 36.6785150374 762
Cu 16.8235345521 38.4835263951 38.4835263951 764
Cu 20.4335211551 36.6785150374 36.6785150374 1160
Cu 22.2385325129 36.6785150374 38.4835263951 1166
Cu 22.2385325129 38.4835263951 36.6785150374 1203
Cu 20.4335211551 38.4835263951 38.4835263951 1205
Cu 24.0435077581 36.6785150374 36.6785150374 1601
Cu 25.8485191159 36.6785150374 38.4835263951 1607
Cu 25.8485191159 38.4835263951 36.6785150374 1644
Cu 24.0435077581 38.4835263951 38.4835263951 1646
Cu 27.6535304736 36.6785150374 36.6785150374 2042
Cu 29.4585057189 36.6785150374 38.4835263951 2048
Cu 29.4585057189 38.4835263951 36.6785150374 2085
Cu 27.6535304736 38.4835263951 38.4835263951 2087
Cu 31.2635170766 36.6785150374 36.6785150374 2483
Cu 33.0685284344 36.6785150374 38.4835263951 2489
Cu 33.0685284344 38.4835263951 36.6785150374 2526
Cu 31.2635170766 38.4835263951 38.4835263951 2528
Cu 34.8735036796 36.6785150374 36.6785150374 2924
Cu 34.8735036796 38.4835263951 38.4835263951 2969
Cu 36.6785150374 36.6785150374 38.4835263951 2930
Cu 36.6785150374 38.4835263951 36.6785150374 2967
Cu 38.4835263951 36.6785150374 36.6785150374 3365
Cu 38.4835263951 38.4835263951 38.4835263951 3410
Cu 40.2885016404 36.6785150374 38.4835263951 3371
Cu 40.2885016404 38.4835263951 36.6785150374 3408
Cu 42.0935129981 36.6785150374 36.6785150374 3806
Cu 42.0935129981 38.4835263951 38.4835263951 3851
Cu 43.8985243559 36.6785150374 38.4835263951 3812
Cu 43.8985243559 38.4835263951 36.6785150374 3849
Cu 45.7034996011 36.6785150374 36.6785150374 4247
Cu 45.7034996011 38.4835263951 38.4835263951 4292
Cu 47.5085109588 36.6785150374 38.4835263951 4253
Cu 47.5085109588 38.4835263951 36.6785150374 4290
Cu 49.3135223166 36.6785150374 36.6785150374 4550
Cu 49.3135223166 38.4835263951 38.4835263951 4572
Cu 13.213517073 40.2885016404 36.6785150374 320
Cu 15.0185159719 40.2885016404 38.4835263951 326
Cu 15.0185159719 42.0935129981 36.6785150374 363
Cu 13.213517073 42.0935129981 38.4835263951 365
Cu 16.8235345521 40.2885016404 36.6785150374 761
Cu 18.6285097974 40.2885016404 38.4835263951 767
Cu 18.6285097974 42.0935129981 36.6785150374 804
Cu 16.8235345521 42.0935129981 38.4835263951 806
Cu 20.4335211551 40.2885016404 36.6785150374 1202
Cu 22.2385325129 40.2885016404 38.4835263951 1208
Cu 22.2385325129 42.0935129981 36.6785150374 1245
Cu 20.4335211551 42.0935129981 38.4835263951 1247
Cu 24.0435077581 40.2885016404 36.6785150374 1643
Cu 25.8485191159 40.2885016404 38.4835263951 1649
Cu 25.8485191159 42.0935129981 36.6785150374 1686
Cu 24.0435077581 42.0935129981 38.4835263951 1688
Cu 27.6535304736 40.2885016404 36.6785150374 2084
Cu 29.4585057189 40.2885016404 38.4835263951 2090
Cu 29.4585057189 42.0935129981 36.6785150374 2127
Cu 27.6535304736 42.0935129981 38.4835263951 2129
Cu 31.2635170766 40.2885016404 36.6785150374 2525
Cu 33.0685284344 40.2885016404 38.4835263951 2531
Cu 33.0685284344 42.0935129981 36.6785150374 2568
Cu 31.2635170766 42.0935129981 38.4835263951 2570
Cu 34.8735036796 40.2885016404 36.6785150374 2966
Cu 34.8735036796 42.0935129981 38.4835263951 3011
Cu 36.6785150374 40.2885016404 38.4835263951 2972
Cu 36.6785150374 42.0935129981 36.6785150374 3009
Cu 38.4835263951 40.2885016404 36.6785150374 3407
Cu 38.4835263951 42.0935129981 38.4835263951 3452
Cu 40.2885016404 40.2885016404 38.4835263951 3413
Cu 40.2885016404 42.0935129981 36.6785150374 3450
Cu 42.0935129981 40.2885016404 36.6785150374 3848
Cu 42.0935129981 42.0935129981 38.4835263951 3893
Cu 43.8985243559 40.2885016404 38.4835263951 3854
Cu 43.8985243559 42.0935129981 36.6785150374 3891
Cu 45.7034996011 40.2885016404 36.6785150374 4289
Cu 45.7034996011 42.0935129981 38.4835263951 4334
Cu 47.5085109588 40.2885016404 38.4835263951 4295
Cu 47.5085109588 42.0935129981 36.6785150374 4332
Cu 49.3135223166 40.2885016404 36.6785150374 4571
Cu 49.3135223166 42.0935129981 38.4835263951 4593
Cu 13.213517073 43.8985243559 36.6785150374 362
Cu 15.0185159719 43.8985243559 38.4835263951 368
Cu 15.0185159719 45.7034996011 36.6785150374 405
Cu 13.213517073 45.7034996011 38.4835263951 407
Cu 16.8235345521 43.8985243559 36.6785150374 803
Cu 18.6285097974 43.8985243559 38.4835263951 809
Cu 18.6285097974 45.7034996011 36.6785150374 846
Cu 16.8235345521 45.7034996011 38.4835263951 848
Cu 20.4335211551 43.8985243559 36.6785150374 1244
Cu 22.2385325129 43.8985243559 38.4835263951 1250
Cu 22.2385325129 45.7034996011 36.6785150374 1287
Cu 20.4335211551 45.7034996011 38.4835263951 1289
Cu 24.0435077581 43.8985243559 36.6785150374 1685
Cu 25.8485191159 43.8985243559 38.4835263951 1691
Cu 25.8485191159 45.7034996011 36.6785150374 1728
Cu 24.0435077581 45.7034996011 38.4835263951 1730
Cu 27.6535304736 43.8985243559 36.6785150374 2126
Cu 29.4585057189 43.8985243559 38.4835263951 2132
Cu 29.4585057189 45.7034996011 36.6785150374 2169
Cu 27.6535304736 45.7034996011 38.4835263951 2171
Cu 31.2635170766 43.8985243559 36.6785150374 2567
Cu 33.0685284344 43.8985243559 38.4835263951 2573
Cu 33.0685284344 45.7034996011 36.6785150374 2610
Cu 31.2635170766 45.7034996011 38.4835263951 2612
Cu 34.8735036796 43.8985243559 36.6785150374 3008
Cu 34.8735036796 45.7034996011 38.4835263951 3053
Cu 36.6785150374 43.8985243559 38.4835263951 3014
Cu 36.6785150374 45.7034996011 36.6785150374 3051
Cu 38.4835263951 43.8985243559 36.6785150374 3449
Cu 38.4835263951 45.7034996011 38.4835263951 3494
Cu 40.2885016404 43.8985243559 38.4835263951 3455
Cu 40.2885016404 45.7034996011 36.6785150374 3492
Cu 42.0935129981 43.8985243559 36.6785150374 3890
Cu 42.0935129981 45.7034996011 38.4835263951 3935
Cu 43.8985243559 43.8985243559 38.4835263951 3896
Cu 43.8985243559 45.7034996011 36.6785150374 3933
Cu 45.7034996011 43.8985243559 36.6785150374 4331
Cu 45.7034996011 45.7034996011 38.4835263951 4376
Cu 47.5085109588 43.8985243559 38.4835263951 4337
Cu 47.5085109588 45.7034996011 36.6785150374 4374
Cu 49.3135223166 43.8985243559 36.6785150374 4592
Cu 49.3135223166 45.7034996011 38.4835263951 4614
Cu 13.213517073 47.5085109588 36.6785150374 404
Cu 15.0185159719 47.5085109588 38.4835263951 410
Cu 15.0185159719 49.3135223166 36.6785150374 434
Cu 13.213517073 49.3135223166 38.4835263951 435
Cu 16.8235345521 47.5085109588 36.6785150374 845
Cu 18.6285097974 47.5085109588 38.4835263951 851
Cu 18.6285097974 49.3135223166 36.6785150374 875
Cu 16.8235345521 49.3135223166 38.4835263951 876
Cu 20.4335211551 47.5085109588 36.6785150374 1286
Cu 22.2385325129 47.5085109588 38.4835263951 1292
Cu 22.2385325129 49.3135223166 36.6785150374 1316
Cu 20.4335211551 49.3135223166 38.4835263951 1317
Cu 24.0435077581 47.5085109588 36.6785150374 1727
Cu 25.8485191159 47.5085109588 38.4835263951 1733
Cu 25.8485191159 49.3135223166 36.6785150374 1757
Cu 24.0435077581 49.3135223166 38.4835263951 1758
Cu 27.6535304736 47.5085109588 36.6785150374 2168
Cu 29.4585057189 47.5085109588 38.4835263951 2174
Cu 29.4585057189 49.3135223166 36.6785150374 2198
Cu 27.6535304736 49.3135223166 38.4835263951 2199
Cu 31.2635170766 47.5085109588 36.6785150374 2609
Cu 33.0685284344 47.5085109588 38.4835263951 2615
Cu 33.0685284344 49.3135223166 36.6785150374 2639
Cu 31.2635170766 49.3135223166 38.4835263951 2640
Cu 34.8735036796 47.5085109588 36.6785150374 3050
Cu 34.8735036796 49.3135223166 38.4835263951 3081
Cu 36.6785150374 47.5085109588 38.4835263951 3056
Cu 36.6785150374 49.3135223166 36.6785150374 3080
Cu 38.4835263951 47.5085109588 36.6785150374 3491
Cu 38.4835263951 49.3135223166 38.4835263951 3522
Cu 40.2885016404 47.5085109588 38.4835263951 3497
Cu 40.2885016404 49.3135223166 36.6785150374 3521
Cu 42.0935129981 47.5085109588 36.6785150374 3932
Cu 42.0935129981 49.3135223166 38.4835263951 3963
Cu 43.8985243559 47.5085109588 38.4835263951 3938
Cu 43.8985243559 49.3135223166 36.6785150374 3962
Cu 45.7034996011 47.5085109588 36.6785150374 4373
Cu 45.7034996011 49.3135223166 38.4835263951 4404
Cu 47.5085109588 47.5085109588 38.4835263951 4379
Cu 47.5085109588 49.3135223166 36.6785150374 4403
Cu 49.3135223166 47.5085109588 36.6785150374 4613
Cu 49.3135223166 49.3135223166 38.4835263951 4628
Cu 13.213517073 15.0185159719 40.2885016404 30
Cu 15.0185159719 13.213517073 40.2885016404 31
Cu 13.213517073 13.213517073 42.0935129981 33
Cu 15.0185159719 15.0185159719 42.0935129981 36
Cu 16.8235345521 15.0185159719 40.2885016404 471
Cu 18.6285097974 13.213517073 40.2885016404 472
Cu 16.8235345521 13.213517073 42.0935129981 474
Cu 18.6285097974 15.0185159719 42.0935129981 477
Cu 20.4335211551 15.0185159719 40.2885016404 912
Cu 22.2385325129 13.213517073 40.2885016404 913
Cu 20.4335211551 13.213517073 42.0935129981 915
Cu 22.2385325129 15.0185159719 42.0935129981 918
Cu 24.0435077581 15.0185159719 40.2885016404 1353
Cu 25.8485191159 13.213517073 40.2885016404 1354
Cu 24.0435077581 13.213517073 42.0935129981 1356
Cu 25.8485191159 15.0185159719 42.0935129981 1359
Cu 27.6535304736 15.0185159719 40.2885016404 1794
Cu 29.4585057189 13.213517073 40.2885016404 1795
Cu 27.6535304736 13.213517073 42.0935129981 1797
Cu 29.4585057189 15.0185159719 42.0935129981 1800
Cu 31.2635170766 15.0185159719 40.2885016404 2235
Cu 33.0685284344 13.213517073 40.2885016404 2236
Cu 31.2635170766 13.213517073 42.0935129981 2238
Cu 33.0685284344 15.0185159719 42.0935129981 2241
Cu 34.8735036796 15.0185159719 40.2885016404 2676
Cu 34.8735036796 13.213517073 42.0935129981 2679
Cu 36.6785150374 13.213517073 40.2885016404 2677
Cu 36.6785150374 15.0185159719 42.0935129981 2682
Cu 38.4835263951 15.0185159719 40.2885016404 3117
Cu 38.4835263951 13.213517073 42.0935129981 3120
Cu 40.2885016404 13.213517073 40.2885016404 3118
Cu 40.2885016404 15.0185159719 42.0935129981 3123
Cu 42.0935129981 15.0185159719 40.2885016404 3558
Cu 42.0935129981 13.213517073 42.0935129981 3561
Cu 43.8985243559 13.213517073 40.2885016404 3559
Cu 43.8985243559 15.0185159719 42.0935129981 3564
Cu 45.7034996011 15.0185159719 40.2885016404 3999
Cu 45.7034996011 13.213517073 42.0935129981 4002
Cu 47.5085109588 13.213517073 40.2885016404 4000
Cu 47.5085109588 15.0185159719 42.0935129981 4005
Cu 49.3135223166 15.0185159719 40.2885016404 4426
Cu 49.3135223166 13.213517073 42.0935129981 4427
Cu 13.213517073 18.6285097974 40.2885016404 72
Cu 15.0185159719 16.8235345521 40.2885016404 73
Cu 13.213517073 16.8235345521 42.0935129981 75
Cu 15.0185159719 18.6285097974 42.0935129981 78
Cu 16.8235345521 18.6285097974 40.2885016404 513
Cu 18.6285097974 16.8235345521 40.2885016404 514
Cu 16.8235345521 16.8235345521 42.0935129981 516
Cu 18.6285097974 18.6285097974 42.0935129981 519
Cu 20.4335211551 18.6285097974 40.2885016404 954
Cu 22.2385325129 16.8235345521 40.2885016404 955
Cu 20.4335211551 16.8235345521 42.0935129981 957
Cu 22.2385325129 18.6285097974 42.0935129981 960
Cu 24.0435077581 18.6285097974 40.2885016404 1395
Cu 25.8485191159 16.8235345521 40.2885016404 1396
Cu 24.0435077581 16.8235345521 42.0935129981 1398
Cu 25.8485191159 18.6285097974 42.0935129981 1401
Cu 27.6535304736 18.6285097974 40.2885016404 1836
Cu 29.4585057189 16.8235345521 40.2885016404 1837
Cu 27.6535304736 16.8235345521 42.0935129981 1839
Cu 29.4585057189 18.6285097974 42.0935129981 1842
Cu 31.2635170766 18.6285097974 40.2885016404 2277
Cu 33.0685284344 16.8235345521 40.2885016404 2278
Cu 31.2635170766 16.8235345521 42.0935129981 2280
Cu 33.0685284344 18.6285097974 42.0935129981 2283
Cu 34.8735036796 18.6285097974 40.2885016404 2718
Cu 34.8735036796 16.8235345521 42.0935129981 2721
Cu 36.6785150374 16.8235345521 40.2885016404 2719
Cu 36.6785150374 18.6285097974 42.0935129981 2724
Cu 38.4835263951 18.6285097974 40.2885016404 3159
Cu 38.4835263951 16.8235345521 42.0935129981 3162
Cu 40.2885016404 16.8235345521 40.2885016404 3160
Cu 40.2885016404 18.6285097974 42.0935129981 3165
Cu 42.0935129981 18.6285097974 40.2885016404 3600
Cu 42.0935129981 16.8235345521 42.0935129981 3603
Cu 43.8985243559 16.8235345521 40.2885016404 3601
Cu 43.8985243559 18.6285097974 42.0935129981 3606
Cu 45.7034996011 18.6285097974 40.2885016404 4041
Cu 45.7034996011 16.8235345521 42.0935129981 4044
Cu 47.5085109588 16.8235345521 40.2885016404 4042
Cu 47.5085109588 18.6285097974 42.0935129981 4047
Cu 49.3135223166 18.6285097974 40.2885016404 4447
Cu 49.3135223166 16.8235345521 42.0935129981 4448
Cu 13.213517073 22.2385325129 40.2885016404 114
Cu 15.0185159719 20.4335211551 40.2885016404 115
Cu 13.213517073 20.4335211551 42.0935129981 117
Cu 15.0185159719 22.2385325129 42.0935129981 120
Cu 16.8235345521 22.2385325129 40.2885016404 555
Cu 18.6285097974 20.4335211551 40.2885016404 556
Cu 16.8235345521 20.4335211551 42.0935129981 558
Cu 18.6285097974 22.2385325129 42.0935129981 561
Cu 20.4335211551 22.2385325129 40.2885016404 996
Cu 22.2385325129 20.4335211551 40.2885016404 997
Cu 20.4335211551 20.4335211551 42.0935129981 999
Cu 22.2385325129 22.2385325129 42.0935129981 1002
Cu 24.0435077581 22.2385325129 40.2885016404 1437
Cu 25.8485191159 20.4335211551 40.2885016404 1438
Cu 24.0435077581 20.4335211551 42.0935129981 1440
Cu 25.8485191159 22.2385325129 42.0935129981 1443
Cu 27.6535304736 22.2385325129 40.2885016404 1878
Cu 29.4585057189 20.4335211551 40.2885016404 1879
Cu 27.6535304736 20.4335211551 42.0935129981 1881
Cu 29.4585057189 22.2385325129 42.0935129981 1884
Cu 31.2635170766 22.2385325129 40.2885016404 2319
Cu 33.0685284344 20.4335211551 40.2885016404 2320
Cu 31.2635170766 20.4335211551 42.0935129981 2322
Cu 33.0685284344 22.2385325129 42.0935129981 2325
Cu 34.8735036796 22.2385325129 40.2885016404 2760
Cu 34.8735036796 20.4335211551 42.0935129981 2763
Cu 36.6785150374 20.4335211551 40.2885016404 2761
Cu 36.6785150374 22.2385325129 42.0935129981 2766
Cu 38.4835263951 22.2385325129 40.2885016404 3201
Cu 38.4835263951 20.4335211551 42.0935129981 3204
Cu 40.2885016404 20.4335211551 40.2885016404 3202
Cu 40.2885016404 22.2385325129 42.0935129981 3207
Cu 42.0935129981 22.2385325129 40.2885016404 3642
Cu 42.0935129981 20.4335211551 42.0935129981 3645
Cu 43.8985243559 20.4335211551 40.2885016404 3643
Cu 43.8985243559 22.2385325129 42.0935129981 3648
Cu 45.7034996011 22.2385325129 40.2885016404 4083
Cu 45.7034996011 20.4335211551 42.0935129981 4086
Cu 47.5085109588 20.4335211551 40.2885016404 4084
Cu 47.5085109588 22.2385325129 42.0935129981 4089
Cu 49.3135223166 22.2385325129 40.2885016404 4468
Cu 49.3135223166 20.4335211551 42.0935129981 4469
Cu 13.213517073 25.8485191159 40.2885016404 156
Cu 15.0185159719 24.0435077581 40.2885016404 157
Cu 13.213517073 24.0435077581 42.0935129981 159
Cu 15.0185159719 25.8485191159 42.0935129981 162
Cu 16.8235345521 25.8485191159 40.2885016404 597
Cu 18.6285097974 24.0435077581 40.2885016404 598
Cu 16.8235345521 24.0435077581 42.0935129981 600
Cu 18.6285097974 25.8485191159 42.0935129981 603
Cu 20.4335211551 25.8485191159 40.2885016404 1038
Cu 22.2385325129 24.0435077581 40.2885016404 1039
Cu 20.4335211551 24.0435077581 42.0935129981 1041
Cu 22.2385325129 25.8485191159 42.0935129981 1044
Cu 24.0435077581 25.8485191159 40.2885016404 1479
Cu 25.8485191159 24.0435077581 40.2885016404 1480
Cu 24.0435077581 24.0435077581 42.0935129981 1482
Cu 25.8485191159 25.8485191159 42.0935129981 1485
Cu 27.6535304736 25.8485191159 40.2885016404 1920
Cu 29.4585057189 24.0435077581 40.2885016404 1921
Cu 27.6535304736 24.0435077581 42.0935129981 1923
Cu 29.4585057189 25.8485191159 42.0935129981 1926
Cu 31.2635170766 25.8485191159 40.2885016404 2361
Cu 33.0685284344 24.0435077581 40.2885016404 2362
Cu 31.2635170766 24.0435077581 42.0935129981 2364
Cu 33.0685284344 25.8485191159 42.0935129981 2367
Cu 34.8735036796 25.8485191159 40.2885016404 2802
Cu 34.8735036796 24.0435077581 42.0935129981 2805
Cu 36.6785150374 24.0435077581 40.2885016404 2803
Cu 36.6785150374 25.8485191159 42.0935129981 2808
Cu 38.4835263951 25.8485191159 40.2885016404 3243
Cu 38.4835263951 24.0435077581 42.0935129981 3246
Cu 40.2885016404 24.0435077581 40.2885016404 3244
Cu 40.2885016404 25.8485191159 42.0935129981 3249
Cu 42.0935129981 25.8485191159 40.2885016404 3684
Cu 42.0935129981 24.0435077581 42.0935129981 3687
Cu 43.8985243559 24.0435077581 40.2885016404 3685
Cu 43.8985243559 25.8485191159 42.0935129981 3690
Cu 45.7034996011 25.8485191159 40.2885016404 4125
Cu 45.7034996011 24.0435077581 42.0935129981 4128
Cu 47.5085109588 24.0435077581 40.2885016404 4126
Cu 47.5085109588 25.8485191159 42.0935129981 4131
Cu 49.3135223166 25.8485191159 40.2885016404 4489
Cu 49.3135223166 24.0435077581 42.0935129981 4490
Cu 13.213517073 29.4585057189 40.2885016404 198
Cu 15.0185159719 27.6535304736 40.2885016404 199
Cu 13.213517073 27.6535304736 42.0935129981 201
Cu 15.0185159719 29.4585057189 42.0935129981 204
Cu 16.8235345521 29.4585057189 40.2885016404 639
Cu 18.6285097974 27.6535304736 40.2885016404 640
Cu 16.8235345521 27.6535304736 42.0935129981 642
Cu 18.6285097974 29.4585057189 42.0935129981 645
Cu 20.4335211551 29.4585057189 40.2885016404 1080
Cu 22.2385325129 27.6535304736 40.2885016404 1081
Cu 20.4335211551 27.6535304736 42.0935129981 1083
Cu 22.2385325129 29.4585057189 42.0935129981 1086
Cu 24.0435077581 29.4585057189 40.2885016404 1521
Cu 25.8485191159 27.6535304736 40.2885016404 1522
Cu 24.0435077581 27.6535304736 42.0935129981 1524
Cu 25.8485191159 29.4585057189 42.0935129981 1527
Cu 27.6535304736 29.4585057189 40.2885016404 1962
Cu 29.4585057189 27.6535304736 40.2885016404 1963
Cu 27.6535304736 27.6535304736 42.0935129981 1965
Cu 29.4585057189 29.4585057189 42.0935129981 1968
Cu 31.2635170766 29.4585057189 40.2885016404 2403
Cu 33.0685284344 27.6535304736 40.2885016404 2404
Cu 31.2635170766 27.6535304736 42.0935129981 2406
Cu 33.0685284344 29.4585057189 42.0935129981 2409
Cu 34.8735036796 29.4585057189 40.2885016404 2844
Cu 34.8735036796 27.6535304736 42.0935129981 2847
Cu 36.6785150374 27.6535304736 40.2885016404 2845
Cu 36.6785150374 29.4585057189 42.0935129981 2850
Cu 38.4835263951 29.4585057189 40.2885016404 3285
Cu 38.4835263951 27.6535304736 42.0935129981 3288
Cu 40.2885016404 27.6535304736 40.2885016404 3286
Cu 40.2885016404 29.4585057189 42.0935129981 3291
Cu 42.0935129981 29.4585057189 40.2885016404 3726
Cu 42.0935129981 27.6535304736 42.0935129981 3729
Cu 43.8985243559 27.6535304736 40.2885016404 3727
Cu 43.8985243559 29.4585057189 42.0935129981 3732
Cu 45.7034996011 29.4585057189 40.2885016404 4167
Cu 45.7034996011 27.6535304736 42.0935129981 4170
Cu 47.5085109588 27.6535304736 40.2885016404 4168
Cu 47.5085109588 29.4585057189 42.0935129981 4173
Cu 49.3135223166 29.4585057189 40.2885016404 4510
Cu 49.3135223166 27.6535304736 42.0935129981 4511
Cu 13.213517073 33.0685284344 40.2885016404 240
Cu 15.0185159719 31.2635170766 40.2885016404 241
Cu 13.213517073 31.2635170766 42.0935129981 243
Cu 15.0185159719 33.0685284344 42.0935129981 246
Cu 15.0185159719 34.8735036796 40.2885016404 283
Cu 13.213517073 34.8735036796 42.0935129981 285
Cu 16.8235345521 33.0685284344 40.2885016404 681
Cu 18.6285097974 31.2635170766 40.2885016404 682
Cu 16.8235345521 31.2635170766 42.0935129981 684
Cu 18.6285097974 33.0685284344 42.0935129981 687
Cu 18.6285097974 34.8735036796 40.2885016404 724
Cu 16.8235345521 34.8735036796 42.0935129981 726
Cu 20.4335211551 33.0685284344 40.2885016404 1122
Cu 22.2385325129 31.2635170766 40.2885016404 1123
Cu 20.4335211551 31.2635170766 42.0935129981 1125
Cu 22.2385325129 33.0685284344 42.0935129981 1128
Cu 22.2385325129 34.8735036796 40.2885016404 1165
Cu 20.4335211551 34.8735036796 42.0935129981 1167
Cu 24.0435077581 33.0685284344 40.2885016404 1563
Cu 25.8485191159 31.2635170766 40.2885016404 1564
Cu 24.0435077581 31.2635170766 42.0935129981 1566
Cu 25.8485191159 33.0685284344 42.0935129981 1569
Cu 25.8485191159 34.8735036796 40.2885016404 1606
Cu 24.0435077581 34.8735036796 42.0935129981 1608
Cu 27.6535304736 33.0685284344 40.2885016404 2004
Cu 29.4585057189 31.2635170766 40.2885016404 2005
Cu 27.6535304736 31.2635170766 42.0935129981 2007
Cu 29.4585057189 33.0685284344 42.0935129981 2010
Cu 29.4585057189 34.8735036796 40.2885016404 2047
Cu 27.6535304736 34.8735036796 42.0935129981 2049
Cu 31.2635170766 33.0685284344 40.2885016404 2445
Cu 33.0685284344 31.2635170766 40.2885016404 2446
Cu 31.2635170766 31.2635170766 42.0935129981 2448
Cu 33.0685284344 33.0685284344 42.0935129981 2451
Cu 33.0685284344 34.8735036796 40.2885016404 2488
Cu 31.2635170766 34.8735036796 42.0935129981 2490
Cu 34.8735036796 33.0685284344 40.2885016404 2886
Cu 34.8735036796 31.2635170766 42.0935129981 2889
Cu 34.8735036796 34.8735036796 42.0935129981 2931
Cu 36.6785150374 31.2635170766 40.2885016404 2887
Cu 36.6785150374 33.0685284344 42.0935129981 2892
Cu 36.6785150374 34.8735036796 40.2885016404 2929
Cu 38.4835263951 33.0685284344 40.2885016404 3327
Cu 38.4835263951 31.2635170766 42.0935129981 3330
Cu 38.4835263951 34.8735036796 42.0935129981 3372
Cu 40.2885016404 31.2635170766 40.2885016404 3328
Cu 40.2885016404 33.0685284344 42.0935129981 3333
Cu 40.2885016404 34.8735036796 40.2885016404 3370
Cu 42.0935129981 33.0685284344 40.2885016404 3768
Cu 42.0935129981 31.2635170766 42.0935129981 3771
Cu 42.0935129981 34.8735036796 42.0935129981 3813
Cu 43.8985243559 31.2635170766 40.2885016404 3769
Cu 43.8985243559 33.0685284344 42.0935129981 3774
Cu 43.8985243559 34.8735036796 40.2885016404 3811
Cu 45.7034996011 33.0685284344 40.2885016404 4209
Cu 45.7034996011 31.2635170766 42.0935129981 4212
Cu 45.7034996011 34.8735036796 42.0935129981 4254
Cu 47.5085109588 31.2635170766 40.2885016404 4210
Cu 47.5085109588 33.0685284344 42.0935129981 4215
Cu 47.5085109588 34.8735036796 40.2885016404 4252
Cu 49.3135223166 33.0685284344 40.2885016404 4531
Cu 49.3135223166 31.2635170766 42.0935129981 4532
Cu 49.3135223166 34.8735036796 42.0935129981 4553
Cu 13.213517073 36.6785150374 40.2885016404 282
Cu 15.0185159719 36.6785150374 42.0935129981 288
Cu 15.0185159719 38.4835263951 40.2885016404 325
Cu 13.213517073 38.4835263951 42.0935129981 327
Cu 16.8235345521 36.6785150374 40.2885016404 723
Cu 18.6285097974 36.6785150374 42.0935129981 729
Cu 18.6285097974 38.4835263951 40.2885016404 766
Cu 16.8235345521 38.4835263951 42.0935129981 768
Cu 20.4335211551 36.6785150374 40.2885016404 1164
Cu 22.2385325129 36.6785150374 42.0935129981 1170
Cu 22.2385325129 38.4835263951 40.2885016404 1207
Cu 20.4335211551 38.4835263951 42.0935129981 1209
Cu 24.0435077581 36.6785150374 40.2885016404 1605
Cu 25.8485191159 36.6785150374 42.0935129981 1611
Cu 25.8485191159 38.4835263951 40.2885016404 1648
Cu 24.0435077581 38.4835263951 42.0935129981 1650
Cu 27.6535304736 36.6785150374 40.2885016404 2046
Cu 29.4585057189 36.6785150374 42.0935129981 2052
Cu 29.4585057189 38.4835263951 40.2885016404 2089
Cu 27.6535304736 38.4835263951 42.0935129981 2091
Cu 31.2635170766 36.6785150374 40.2885016404 2487
Cu 33.0685284344 36.6785150374 42.0935129981 2493
Cu 33.0685284344 38.4835263951 40.2885016404 2530
Cu 31.2635170766 38.4835263951 42.0935129981 2532
Cu 34.8735036796 36.6785150374 40.2885016404 2928
Cu 34.8735036796 38.4835263951 42.0935129981 2973
Cu 36.6785150374 36.6785150374 42.0935129981 2934
Cu 36.6785150374 38.4835263951 40.2885016404 2971
Cu 38.4835263951 36.6785150374 40.2885016404 3369
Cu 38.4835263951 38.4835263951 42.0935129981 3414
Cu 40.2885016404 36.6785150374 42.0935129981 3375
Cu 40.2885016404 38.4835263951 40.2885016404 3412
Cu 42.0935129981 36.6785150374 40.2885016404 3810
Cu 42.0935129981 38.4835263951 42.0935129981 3855
Cu 43.8985243559 36.6785150374 42.0935129981 3816
Cu 43.8985243559 38.4835263951 40.2885016404 3853
Cu 45.7034996011 36.6785150374 40.2885016404 4251
Cu 45.7034996011 38.4835263951 42.0935129981 4296
Cu 47.5085109588 36.6785150374 42.0935129981 4257
Cu 47.5085109588 38.4835263951 40.2885016404 4294
Cu 49.3135223166 36.6785150374 40.2885016404 4552
Cu 49.3135223166 38.4835263951 42.0935129981 4574
Cu 13.213517073 40.2885016404 40.2885016404 324
Cu 15.0185159719 40.2885016404 42.0935129981 330
Cu 15.0185159719 42.0935129981 40.2885016404 367
Cu 13.213517073 42.0935129981 42.0935129981 369
Cu 16.8235345521 40.2885016404 40.2885016404 765
Cu 18.6285097974 40.2885016404 42.0935129981 771
Cu 18.6285097974 42.0935129981 40.2885016404 808
Cu 16.8235345521 42.0935129981 42.0935129981 810
Cu 20.4335211551 40.2885016404 40.2885016404 1206
Cu 22.2385325129 40.2885016404 42.0935129981 1212
Cu 22.2385325129 42.0935129981 40.2885016404 1249
Cu 20.4335211551 42.0935129981 42.0935129981 1251
Cu 24.0435077581 40.2885016404 40.2885016404 1647
Cu 25.8485191159 40.2885016404 42.0935129981 1653
Cu 25.8485191159 42.0935129981 40.2885016404 1690
Cu 24.0435077581 42.0935129981 42.0935129981 1692
Cu 27.6535304736 40.2885016404 40.2885016404 2088
Cu 29.4585057189 40.2885016404 42.0935129981 2094
Cu 29.4585057189 42.0935129981 40.2885016404 2131
Cu 27.6535304736 42.0935129981 42.0935129981 2133
Cu 31.2635170766 40.2885016404 40.2885016404 2529
Cu 33.0685284344 40.2885016404 42.0935129981 2535
Cu 33.0685284344 42.0935129981 40.2885016404 2572
Cu 31.2635170766 42.0935129981 42.0935129981 2574
Cu 34.8735036796 40.2885016404 40.2885016404 2970
Cu 34.8735036796 42.0935129981 42.0935129981 3015
Cu 36.6785150374 40.2885016404 42.0935129981 2976
Cu 36.6785150374 42.0935129981 40.2885016404 3013
Cu 38.4835263951 40.2885016404 40.2885016404 3411
Cu 38.4835263951 42.0935129981 42.0935129981 3456
Cu 40.2885016404 40.2885016404 42.0935129981 3417
Cu 40.2885016404 42.0935129981 40.2885016404 3454
Cu 42.0935129981 40.2885016404 40.2885016404 3852
Cu 42.0935129981 42.0935129981 42.0935129981 3897
Cu 43.8985243559 40.2885016404 42.0935129981 3858
Cu 43.8985243559 42.0935129981 40.2885016404 3895
Cu 45.7034996011 40.2885016404 40.2885016404 4293
Cu 45.7034996011 42.0935129981 42.0935129981 4338
Cu 47.5085109588 40.2885016404 42.0935129981 4299
Cu 47.5085109588 42.0935129981 40.2885016404 4336
Cu 49.3135223166 40.2885016404 40.2885016404 4573
Cu 49.3135223166 42.0935129981 42.0935129981 4595
Cu 13.213517073 43.8985243559 40.2885016404 366
Cu 15.0185159719 43.8985243559 42.0935129981 372
Cu 15.0185159719 45.7034996011 40.2885016404 409
Cu 13.213517073 45.7034996011 42.0935129981 411
Cu 16.8235345521 43.8985243559 40.2885016404 807
Cu 18.6285097974 43.8985243559 42.0935129981 813
Cu 18.6285097974 45.7034996011 40.2885016404 850
Cu 16.8235345521 45.7034996011 42.0935129981 852
Cu 20.4335211551 43.8985243559 40.2885016404 1248
Cu 22.2385325129 43.8985243559 42.0935129981 1254
Cu 22.2385325129 45.7034996011 40.2885016404 1291
Cu 20.4335211551 45.7034996011 42.0935129981 1293
Cu 24.0435077581 43.8985243559 40.2885016404 1689
Cu 25.8485191159 43.8985243559 42.0935129981 1695
Cu 25.8485191159 45.7034996011 40.2885016404 1732
Cu 24.0435077581 45.7034996011 42.0935129981 1734
Cu 27.6535304736 43.8985243559 40.2885016404 2130
Cu 29.4585057189 43.8985243559 42.0935129981 2136
Cu 29.4585057189 45.7034996011 40.2885016404 2173
Cu 27.6535304736 45.7034996011 42.0935129981 2175
Cu 31.2635170766 43.8985243559 40.2885016404 2571
Cu 33.0685284344 43.8985243559 42.0935129981 2577
Cu 33.0685284344 45.7034996011 40.2885016404 2614
Cu 31.2635170766 45.7034996011 42.0935129981 2616
Cu 34.8735036796 43.8985243559 40.2885016404 3012
Cu 34.8735036796 45.7034996011 42.0935129981 3057
Cu 36.6785150374 43.8985243559 42.0935129981 3018
Cu 36.6785150374 45.7034996011 40.2885016404 3055
Cu 38.4835263951 43.8985243559 40.2885016404 3453
Cu 38.4835263951 45.7034996011 42.0935129981 3498
Cu 40.2885016404 43.8985243559 42.0935129981 3459
Cu 40.2885016404 45.7034996011 40.2885016404 3496
Cu 42.0935129981 43.8985243559 40.2885016404 3894
Cu 42.0935129981 45.7034996011 42.0935129981 3939
Cu 43.8985243559 43.8985243559 42.0935129981 3900
Cu 43.8985243559 45.7034996011 40.2885016404 3937
Cu 45.7034996011 43.8985243559 40.2885016404 4335
Cu 45.7034996011 45.7034996011 42.0935129981 4380
Cu 47.5085109588 43.8985243559 42.0935129981 4341
Cu 47.5085109588 45.7034996011 40.2885016404 4378
Cu 49.3135223166 43.8985243559 40.2885016404 4594
Cu 49.3135223166 45.7034996011 42.0935129981 4616
Cu 13.213517073 47.5085109588 40.2885016404 408
Cu 15.0185159719 47.5085109588 42.0935129981 414
Cu 15.0185159719 49.3135223166 40.2885016404 436
Cu 13.213517073 49.3135223166 42.0935129981 437
Cu 16.8235345521 47.5085109588 40.2885016404 849
Cu 18.6285097974 47.5085109588 42.0935129981 855
Cu 18.6285097974 49.3135223166 40.2885016404 877
Cu 16.8235345521 49.3135223166 42.0935129981 878
Cu 20.4335211551 47.5085109588 40.2885016404 1290
Cu 22.2385325129 47.5085109588 42.0935129981 1296
Cu 22.2385325129 49.3135223166 40.2885016404 1318
Cu 20.4335211551 49.3135223166 42.0935129981 1319
Cu 24.0435077581 47.5085109588 40.2885016404 1731
Cu 25.8485191159 47.5085109588 42.0935129981 1737
Cu 25.8485191159 49.3135223166 40.2885016404 1759
Cu 24.0435077581 49.3135223166 42.0935129981 1760
Cu 27.6535304736 47.5085109588 40.2885016404 2172
Cu 29.4585057189 47.5085109588 42.0935129981 2178
Cu 29.4585057189 49.3135223166 40.2885016404 2200
Cu 27.6535304736 49.3135223166 42.0935129981 2201
Cu 31.2635170766 47.5085109588 40.2885016404 2613
Cu 33.0685284344 47.5085109588 42.0935129981 2619
Cu 33.0685284344 49.3135223166 40.2885016404 2641
Cu 31.2635170766 49.3135223166 42.0935129981 2642
Cu 34.8735036796 47.5085109588 40.2885016404 3054
Cu 34.8735036796 49.3135223166 42.0935129981 3083
Cu 36.6785150374 47.5085109588 42.0935129981 3060
Cu 36.6785150374 49.3135223166 40.2885016404 3082
Cu 38.4835263951 47.5085109588 40.2885016404 3495
Cu 38.4835263951 49.3135223166 42.0935129981 3524
Cu 40.2885016404 47.5085109588 42.0935129981 3501
Cu 40.2885016404 49.3135223166 40.2885016404 3523
Cu 42.0935129981 47.5085109588 40.2885016404 3936
Cu 42.0935129981 49.3135223166 42.0935129981 3965
Cu 43.8985243559 47.5085109588 42.0935129981 3942
Cu 43.8985243559 49.3135223166 40.2885016404 3964
Cu 45.7034996011 47.5085109588 40.2885016404 4377
Cu 45.7034996011 49.3135223166 42.0935129981 4406
Cu 47.5085109588 47.5085109588 42.0935129981 4383
Cu 47.5085109588 49.3135223166 40.2885016404 4405
Cu 49.3135223166 47.5085109588 40.2885016404 4615
Cu 49.3135223166 49.3135223166 42.0935129981 4629
Cu 13.213517073 15.0185159719 43.8985243559 34
Cu 15.0185159719 13.213517073 43.8985243559 35
Cu 13.213517073 13.213517073 45.7034996011 37
Cu 15.0185159719 15.0185159719 45.7034996011 40
Cu 16.8235345521 15.0185159719 43.8985243559 475
Cu 18.6285097974 13.213517073 43.8985243559 476
Cu 16.8235345521 13.213517073 45.7034996011 478
Cu 18.6285097974 15.0185159719 45.7034996011 481
Cu 20.4335211551 15.0185159719 43.8985243559 916
Cu 22.2385325129 13.213517073 43.8985243559 917
Cu 20.4335211551 13.213517073 45.7034996011 919
Cu 22.2385325129 15.0185159719 45.7034996011 922
Cu 24.0435077581 15.0185159719 43.8985243559 1357
Cu 25.8485191159 13.213517073 43.8985243559 1358
Cu 24.0435077581 13.213517073 45.7034996011 1360
Cu 25.8485191159 15.0185159719 45.7034996011 1363
Cu 27.6535304736 15.0185159719 43.8985243559 1798
Cu 29.4585057189 13.213517073 43.8985243559 1799
Cu 27.6535304736 13.213517073 45.7034996011 1801
Cu 29.4585057189 15.0185159719 45.7034996011 1804
Cu 31.2635170766 15.0185159719 43.8985243559 2239
Cu 33.0685284344 13.213517073 43.8985243559 2240
Cu 31.2635170766 13.213517073 45.7034996011 2242
Cu 33.0685284344 15.0185159719 45.7034996011 2245
Cu 34.8735036796 15.0185159719 43.8985243559 2680
Cu 34.8735036796 13.213517073 45.7034996011 2683
Cu 36.6785150374 13.213517073 43.8985243559 2681
Cu 36.6785150374 15.0185159719 45.7034996011 2686
Cu 38.4835263951 15.0185159719 43.8985243559 3121
Cu 38.4835263951 13.213517073 45.7034996011 3124
Cu 40.2885016404 13.213517073 43.8985243559 3122
Cu 40.2885016404 15.0185159719 45.7034996011 3127
Cu 42.0935129981 15.0185159719 43.8985243559 3562
Cu 42.0935129981 13.213517073 45.7034996011 3565
Cu 43.8985243559 13.213517073 43.8985243559 3563
Cu 43.8985243559 15.0185159719 45.7034996011 3568
Cu 45.7034996011 15.0185159719 43.8985243559 4003
Cu 45.7034996011 13.213517073 45.7034996011 4006
Cu 47.5085109588 13.213517073 43.8985243559 4004
Cu 47.5085109588 15.0185159719 45.7034996011 4009
Cu 49.3135223166 15.0185159719 43.8985243559 4428
Cu 49.3135223166 13.213517073 45.7034996011 4429
Cu 13.213517073 18.6285097974 43.8985243559 76
Cu 15.0185159719 16.8235345521 43.8985243559 77
Cu 13.213517073 16.8235345521 45.7034996011 79
Cu 15.0185159719 18.6285097974 45.7034996011 82
Cu 16.8235345521 18.6285097974 43.8985243559 517
Cu 18.6285097974 16.8235345521 43.8985243559 518
Cu 16.8235345521 16.8235345521 45.7034996011 520
Cu 18.6285097974 18.6285097974 45.7034996011 523
Cu 20.4335211551 18.6285097974 43.8985243559 958
Cu 22.2385325129 16.8235345521 43.8985243559 959
Cu 20.4335211551 16.8235345521 45.7034996011 961
Cu 22.2385325129 18.6285097974 45.7034996011 964
Cu 24.0435077581 18.6285097974 43.8985243559 1399
Cu 25.8485191159 16.8235345521 43.8985243559 1400
Cu 24.0435077581 16.8235345521 45.7034996011 1402
Cu 25.8485191159 18.6285097974 45.7034996011 1405
Cu 27.6535304736 18.6285097974 43.8985243559 1840
Cu 29.4585057189 16.8235345521 43.8985243559 1841
Cu 27.6535304736 16.8235345521 45.7034996011 1843
Cu 29.4585057189 18.6285097974 45.7034996011 1846
Cu 31.2635170766 18.6285097974 43.8985243559 2281
Cu 33.0685284344 16.8235345521 43.8985243559 2282
Cu 31.2635170766 16.8235345521 45.7034996011 2284
Cu 33.0685284344 18.6285097974 45.7034996011 2287
Cu 34.8735036796 18.6285097974 43.8985243559 2722
Cu 34.8735036796 16.8235345521 45.7034996011 2725
Cu 36.6785150374 16.8235345521 43.8985243559 2723
Cu 36.6785150374 18.6285097974 45.7034996011 2728
Cu 38.4835263951 18.6285097974 43.8985243559 3163
Cu 38.4835263951 16.8235345521 45.7034996011 3166
Cu 40.2885016404 16.8235345521 43.8985243559 3164
Cu 40.2885016404 18.6285097974 45.7034996011 3169
Cu 42.0935129981 18.6285097974 43.8985243559 3604
Cu 42.0935129981 16.8235345521 45.7034996011 3607
Cu 43.8985243559 16.8235345521 43.8985243559 3605
Cu 43.8985243559 18.6285097974 45.7034996011 3610
Cu 45.7034996011 18.6285097974 43.8985243559 4045
Cu 45.7034996011 16.8235345521 45.7034996011 4048
Cu 47.5085109588 16.8235345521 43.8985243559 4046
Cu 47.5085109588 18.6285097974 45.7034996011 4051
Cu 49.3135223166 18.6285097974 43.8985243559 4449
Cu 49.3135223166 16.8235345521 45.7034996011 4450
Cu 13.213517073 22.2385325129 43.8985243559 118
Cu 15.0185159719 20.4335211551 43.8985243559 119
Cu 13.213517073 20.4335211551 45.7034996011 121
Cu 15.0185159719 22.2385325129 45.7034996011 124
Cu 16.8235345521 22.2385325129 43.8985243559 559
Cu 18.6285097974 20.4335211551 43.8985243559 560
Cu 16.8235345521 20.4335211551 45.7034996011 562
Cu 18.6285097974 22.2385325129 45.7034996011 565
Cu 20.4335211551 22.2385325129 43.8985243559 1000
Cu 22.2385325129 20.4335211551 43.8985243559 1001
Cu 20.4335211551 20.4335211551 45.7034996011 1003
Cu 22.2385325129 22.2385325129 45.7034996011 1006
Cu 24.0435077581 22.2385325129 43.8985243559 1441
Cu 25.8485191159 20.4335211551 43.8985243559 1442
Cu 24.0435077581 20.4335211551 45.7034996011 1444
Cu 25.8485191159 22.2385325129 45.7034996011 1447
Cu 27.6535304736 22.2385325129 43.8985243559 1882
Cu 29.4585057189 20.4335211551 43.8985243559 1883
Cu 27.6535304736 20.4335211551 45.7034996011 1885
Cu 29.4585057189 22.2385325129 45.7034996011 1888
Cu 31.2635170766 22.2385325129 43.8985243559 2323
Cu 33.0685284344 20.4335211551 43.8985243559 2324
Cu 31.2635170766 20.4335211551 45.7034996011 2326
Cu 33.0685284344 22.2385325129 45.7034996011 2329
Cu 34.8735036796 22.2385325129 43.8985243559 2764
Cu 34.8735036796 20.4335211551 45.7034996011 2767
Cu 36.6785150374 20.4335211551 43.8985243559 2765
Cu 36.6785150374 22.2385325129 45.7034996011 2770
Cu 38.4835263951 22.2385325129 43.8985243559 3205
Cu 38.4835263951 20.4335211551 45.7034996011 3208
Cu 40.2885016404 20.4335211551 43.8985243559 3206
Cu 40.2885016404 22.2385325129 45.7034996011 3211
Cu 42.0935129981 22.2385325129 43.8985243559 3646
Cu 42.0935129981 20.4335211551 45.7034996011 3649
Cu 43.8985243559 20.4335211551 43.8985243559 3647
Cu 43.8985243559 22.2385325129 45.7034996011 3652
Cu 45.7034996011 22.2385325129 43.8985243559 4087
Cu 45.7034996011 20.4335211551 45.7034996011 4090
Cu 47.5085109588 20.4335211551 43.8985243559 4088
Cu 47.5085109588 22.2385325129 45.7034996011 4093
Cu 49.3135223166 22.2385325129 43.8985243559 4470
Cu 49.3135223166 20.4335211551 45.7034996011 4471
Cu 13.213517073 25.8485191159 43.8985243559 160
Cu 15.0185159719 24.0435077581 43.8985243559 161
Cu 13.213517073 24.0435077581 45.7034996011 163
Cu 15.0185159719 25.8485191159 45.7034996011 166
Cu 16.8235345521 25.8485191159 43.8985243559 601
Cu 18.6285097974 24.0435077581 43.8985243559 602
Cu 16.8235345521 24.0435077581 45.7034996011 604
Cu 18.6285097974 25.8485191159 45.7034996011 607
Cu 20.4335211551 25.8485191159 43.8985243559 1042
Cu 22.2385325129 24.0435077581 43.8985243559 1043
Cu 20.4335211551 24.0435077581 45.7034996011 1045
Cu 22.2385325129 25.8485191159 45.7034996011 1048
Cu 24.0435077581 25.8485191159 43.8985243559 1483
Cu 25.8485191159 24.0435077581 43.8985243559 1484
Cu 24.0435077581 24.0435077581 45.7034996011 1486
Cu 25.8485191159 25.8485191159 45.7034996011 1489
Cu 27.6535304736 25.8485191159 43.8985243559 1924
Cu 29.4585057189 24.0435077581 43.8985243559 1925
Cu 27.6535304736 24.0435077581 45.7034996011 1927
Cu 29.4585057189 25.8485191159 45.7034996011 1930
Cu 31.2635170766 25.8485191159 43.8985243559 2365
Cu 33.0685284344 24.0435077581 43.8985243559 2366
Cu 31.2635170766 24.0435077581 45.7034996011 2368
Cu 33.0685284344 25.8485191159 45.7034996011 2371
Cu 34.8735036796 25.8485191159 43.8985243559 2806
Cu 34.8735036796 24.0435077581 45.7034996011 2809
Cu 36.6785150374 24.0435077581 43.8985243559 2807
Cu 36.6785150374 25.8485191159 45.7034996011 2812
Cu 38.4835263951 25.8485191159 43.8985243559 3247
Cu 38.4835263951 24.0435077581 45.7034996011 3250
Cu 40.2885016404 24.0435077581 43.8985243559 3248
Cu 40.2885016404 25.8485191159 45.7034996011 3253
Cu 42.0935129981 25.8485191159 43.8985243559 3688
Cu 42.0935129981 24.0435077581 45.7034996011 3691
Cu 43.8985243559 24.0435077581 43.8985243559 3689
Cu 43.8985243559 25.8485191159 45.7034996011 3694
Cu 45.7034996011 25.8485191159 43.8985243559 4129
Cu 45.7034996011 24.0435077581 45.7034996011 4132
Cu 47.5085109588 24.0435077581 43.8985243559 4130
Cu 47.5085109588 25.8485191159 45.7034996011 4135
Cu 49.3135223166 25.8485191159 43.8985243559 4491
Cu 49.3135223166 24.0435077581 45.7034996011 4492
Cu 13.213517073 29.4585057189 43.8985243559 202
Cu 15.0185159719 27.6535304736 43.8985243559 203
Cu 13.213517073 27.6535304736 45.7034996011 205
Cu 15.0185159719 29.4585057189 45.7034996011 208
Cu 16.8235345521 29.4585057189 43.8985243559 643
Cu 18.6285097974 27.6535304736 43.8985243559 644
Cu 16.8235345521 27.6535304736 45.7034996011 646
Cu 18.6285097974 29.4585057189 45.7034996011 649
Cu 20.4335211551 29.4585057189 43.8985243559 1084
Cu 22.2385325129 27.6535304736 43.8985243559 1085
Cu 20.4335211551 27.6535304736 45.7034996011 1087
Cu 22.2385325129 29.4585057189 45.7034996011 1090
Cu 24.0435077581 29.4585057189 43.8985243559 1525
Cu 25.8485191159 27.6535304736 43.8985243559 1526
Cu 24.0435077581 27.6535304736 45.7034996011 1528
Cu 25.8485191159 29.4585057189 45.7034996011 1531
Cu 27.6535304736 29.4585057189 43.8985243559 1966
Cu 29.4585057189 27.6535304736 43.8985243559 1967
Cu 27.6535304736 27.6535304736 45.7034996011 1969
Cu 29.4585057189 29.4585057189 45.7034996011 1972
Cu 31.2635170766 29.4585057189 43.8985243559 2407
Cu 33.0685284344 27.6535304736 43.8985243559 2408
Cu 31.2635170766 27.6535304736 45.7034996011 2410
Cu 33.0685284344 29.4585057189 45.7034996011 2413
Cu 34.8735036796 29.4585057189 43.8985243559 2848
Cu 34.8735036796 27.6535304736 45.7034996011 2851
Cu 36.6785150374 27.6535304736 43.8985243559 2849
Cu 36.6785150374 29.4585057189 45.7034996011 2854
Cu 38.4835263951 29.4585057189 43.8985243559 3289
Cu 38.4835263951 27.6535304736 45.7034996011 3292
Cu 40.2885016404 27.6535304736 43.8985243559 3290
Cu 40.2885016404 29.4585057189 45.7034996011 3295
Cu 42.0935129981 29.4585057189 43.8985243559 3730
Cu 42.0935129981 27.6535304736 45.7034996011 3733
Cu 43.8985243559 27.6535304736 43.8985243559 3731
Cu 43.8985243559 29.4585057189 45.7034996011 3736
Cu 45.7034996011 29.4585057189 43.8985243559 4171
Cu 45.7034996011 27.6535304736 45.7034996011 4174
Cu 47.5085109588 27.6535304736 43.8985243559 4172
Cu 47.5085109588 29.4585057189 45.7034996011 4177
Cu 49.3135223166 29.4585057189 43.8985243559 4512
Cu 49.3135223166 27.6535304736 45.7034996011 4513
Cu 13.213517073 33.0685284344 43.8985243559 244
Cu 15.0185159719 31.2635170766 43.8985243559 245
Cu 13.213517073 31.2635170766 45.7034996011 247
Cu 15.0185159719 33.0685284344 45.7034996011 250
Cu 15.0185159719 34.8735036796 43.8985243559 287
Cu 13.213517073 34.8735036796 45.7034996011 289
Cu 16.8235345521 33.0685284344 43.8985243559 685
Cu 18.6285097974 31.2635170766 43.8985243559 686
Cu 16.8235345521 31.2635170766 45.7034996011 688
Cu 18.6285097974 33.0685284344 45.7034996011 691
Cu 18.6285097974 34.8735036796 43.8985243559 728
Cu 16.8235345521 34.8735036796 45.7034996011 730
Cu 20.4335211551 33.0685284344 43.8985243559 1126
Cu 22.2385325129 31.2635170766 43.8985243559 1127
Cu 20.4335211551 31.2635170766 45.7034996011 1129
Cu 22.2385325129 33.0685284344 45.7034996011 1132
Cu 22.2385325129 34.8735036796 43.8985243559 1169
Cu 20.4335211551 34.8735036796 45.7034996011 1171
Cu 24.0435077581 33.0685284344 43.8985243559 1567
Cu 25.8485191159 31.2635170766 43.8985243559 1568
Cu 24.0435077581 31.2635170766 45.7034996011 1570
Cu 25.8485191159 33.0685284344 45.7034996011 1573
Cu 25.8485191159 34.8735036796 43.8985243559 1610
Cu 24.0435077581 34.8735036796 45.7034996011 1612
Cu 27.6535304736 33.0685284344 43.8985243559 2008
Cu 29.4585057189 31.2635170766 43.8985243559 2009
Cu 27.6535304736 31.2635170766 45.7034996011 2011
Cu 29.4585057189 33.0685284344 45.7034996011 2014
Cu 29.4585057189 34.8735036796 43.8985243559 2051
Cu 27.6535304736 34.8735036796 45.7034996011 2053
Cu 31.2635170766 33.0685284344 43.8985243559 2449
Cu 33.0685284344 31.2635170766 43.8985243559 2450
Cu 31.2635170766 31.2635170766 45.7034996011 2452
Cu 33.0685284344 33.0685284344 45.7034996011 2455
Cu 33.0685284344 34.8735036796 43.8985243559 2492
Cu 31.2635170766 34.8735036796 45.7034996011 2494
Cu 34.8735036796 33.0685284344 43.8985243559 2890
Cu 34.8735036796 31.2635170766 45.7034996011 2893
Cu 34.8735036796 34.8735036796 45.7034996011 2935
Cu 36.6785150374 31.2635170766 43.8985243559 2891
Cu 36.6785150374 33.0685284344 45.7034996011 2896
Cu 36.6785150374 34.8735036796 43.8985243559 2933
Cu 38.4835263951 33.0685284344 43.8985243559 3331
Cu 38.4835263951 31.2635170766 45.7034996011 3334
Cu 38.4835263951 34.8735036796 45.7034996011 3376
Cu 40.2885016404 31.2635170766 43.8985243559 3332
Cu 40.2885016404 33.0685284344 45.7034996011 3337
Cu 40.2885016404 34.8735036796 43.8985243559 3374
Cu 42.0935129981 33.0685284344 43.8985243559 3772
Cu 42.0935129981 31.2635170766 45.7034996011 3775
Cu 42.0935129981 34.8735036796 45.7034996011 3817
Cu 43.8985243559 31.2635170766 43.8985243559 3773
Cu 43.8985243559 33.0685284344 45.7034996011 3778
Cu 43.8985243559 34.8735036796 43.8985243559 3815
Cu 45.7034996011 33.0685284344 43.8985243559 4213
Cu 45.7034996011 31.2635170766 45.7034996011 4216
Cu 45.7034996011 34.8735036796 45.7034996011 4258
Cu 47.5085109588 31.2635170766 43.8985243559 4214
Cu 47.5085109588 33.0685284344 45.7034996011 4219
Cu 47.5085109588 34.8735036796 43.8985243559 4256
Cu 49.3135223166 33.0685284344 43.8985243559 4533
Cu 49.3135223166 31.2635170766 45.7034996011 4534
Cu 49.3135223166 34.8735036796 45.7034996011 4555
Cu 13.213517073 36.6785150374 43.8985243559 286
Cu 15.0185159719 36.6785150374 45.7034996011 292
Cu 15.0185159719 38.4835263951 43.8985243559 329
Cu 13.213517073 38.4835263951 45.7034996011 331
Cu 16.8235345521 36.6785150374 43.8985243559 727
Cu 18.6285097974 36.6785150374 45.7034996011 733
Cu 18.6285097974 38.4835263951 43.8985243559 770
Cu 16.8235345521 38.4835263951 45.7034996011 772
Cu 20.4335211551 36.6785150374 43.8985243559 1168
Cu 22.2385325129 36.6785150374 45.7034996011 1174
Cu 22.2385325129 38.4835263951 43.8985243559 1211
Cu 20.4335211551 38.4835263951 45.7034996011 1213
Cu 24.0435077581 36.6785150374 43.8985243559 1609
Cu 25.8485191159 36.6785150374 45.7034996011 1615
Cu 25.8485191159 38.4835263951 43.8985243559 1652
Cu 24.0435077581 38.4835263951 45.7034996011 1654
Cu 27.6535304736 36.6785150374 43.8985243559 2050
Cu 29.4585057189 36.6785150374 45.7034996011 2056
Cu 29.4585057189 38.4835263951 43.8985243559 2093
Cu 27.6535304736 38.4835263951 45.7034996011 2095
Cu 31.2635170766 36.6785150374 43.8985243559 2491
Cu 33.0685284344 36.6785150374 45.7034996011 2497
Cu 33.0685284344 38.4835263951 43.8985243559 2534
Cu 31.2635170766 38.4835263951 45.7034996011 2536
Cu 34.8735036796 36.6785150374 43.8985243559 2932
Cu 34.8735036796 38.4835263951 45.7034996011 2977
Cu 36.6785150374 36.6785150374 45.7034996011 2938
Cu 36.6785150374 38.4835263951 43.8985243559 2975
Cu 38.4835263951 36.6785150374 43.8985243559 3373
Cu 38.4835263951 38.4835263951 45.7034996011 3418
Cu 40.2885016404 36.6785150374 45.7034996011 3379
Cu 40.2885016404 38.4835263951 43.8985243559 3416
Cu 42.0935129981 36.6785150374 43.8985243559 3814
Cu 42.0935129981 38.4835263951 45.7034996011 3859
Cu 43.8985243559 36.6785150374 45.7034996011 3820
Cu 43.8985243559 38.4835263951 43.8985243559 3857
Cu 45.7034996011 36.6785150374 43.8985243559 4255
Cu 45.7034996011 38.4835263951 45.7034996011 4300
Cu 47.5085109588 36.6785150374 45.7034996011 4261
Cu 47.5085109588 38.4835263951 43.8985243559 4298
Cu 49.3135223166 36.6785150374 43.8985243559 4554
Cu 49.3135223166 38.4835263951 45.7034996011 4576
Cu 13.213517073 40.2885016404 43.8985243559 328
Cu 15.0185159719 40.2885016404 45.7034996011 334
Cu 15.0185159719 42.0935129981 43.8985243559 371
Cu 13.213517073 42.0935129981 45.7034996011 373
Cu 16.8235345521 40.2885016404 43.8985243559 769
Cu 18.6285097974 40.2885016404 45.7034996011 775
Cu 18.6285097974 42.0935129981 43.8985243559 812
Cu 16.8235345521 42.0935129981 45.7034996011 814
Cu 20.4335211551 40.2885016404 43.8985243559 1210
Cu 22.2385325129 40.2885016404 45.7034996011 1216
Cu 22.2385325129 42.0935129981 43.8985243559 1253
Cu 20.4335211551 42.0935129981 45.7034996011 1255
Cu 24.0435077581 40.2885016404 43.8985243559 1651
Cu 25.8485191159 40.2885016404 45.7034996011 1657
Cu 25.8485191159 42.0935129981 43.8985243559 1694
Cu 24.0435077581 42.0935129981 45.7034996011 1696
Cu 27.6535304736 40.2885016404 43.8985243559 2092
Cu 29.4585057189 40.2885016404 45.7034996011 2098
Cu 29.4585057189 42.0935129981 43.8985243559 2135
Cu 27.6535304736 42.0935129981 45.7034996011 2137
Cu 31.2635170766 40.2885016404 43.8985243559 2533
Cu 33.0685284344 40.2885016404 45.7034996011 2539
Cu 33.0685284344 42.0935129981 43.8985243559 2576
Cu 31.2635170766 42.0935129981 45.7034996011 2578
Cu 34.8735036796 40.2885016404 43.8985243559 2974
Cu 34.8735036796 42.0935129981 45.7034996011 3019
Cu 36.6785150374 40.2885016404 45.7034996011 2980
Cu 36.6785150374 42.0935129981 43.8985243559 3017
Cu 38.4835263951 40.2885016404 43.8985243559 3415
Cu 38.4835263951 42.0935129981 45.7034996011 3460
Cu 40.2885016404 40.2885016404 45.7034996011 3421
Cu 40.2885016404 42.0935129981 43.8985243559 3458
Cu 42.0935129981 40.2885016404 43.8985243559 3856
Cu 42.0935129981 42.0935129981 45.7034996011 3901
Cu 43.8985243559 40.2885016404 45.7034996011 3862
Cu 43.8985243559 42.0935129981 43.8985243559 3899
Cu 45.7034996011 40.2885016404 43.8985243559 4297
Cu 45.7034996011 42.0935129981 45.7034996011 4342
Cu 47.5085109588 40.2885016404 45.7034996011 4303
Cu 47.5085109588 42.0935129981 43.8985243559 4340
Cu 49.3135223166 40.2885016404 43.8985243559 4575
Cu 49.3135223166 42.0935129981 45.7034996011 4597
Cu 13.213517073 43.8985243559 43.8985243559 370
Cu 15.0185159719 43.8985243559 45.7034996011 376
Cu 15.0185159719 45.7034996011 43.8985243559 413
Cu 13.213517073 45.7034996011 45.7034996011 415
Cu 16.8235345521 43.8985243559 43.8985243559 811
Cu 18.6285097974 43.8985243559 45.7034996011 817
Cu 18.6285097974 45.7034996011 43.8985243559 854
Cu 16.8235345521 45.7034996011 45.7034996011 856
Cu 20.4335211551 43.8985243559 43.8985243559 1252
Cu 22.2385325129 43.8985243559 45.7034996011 1258
Cu 22.2385325129 45.7034996011 43.8985243559 1295
Cu 20.4335211551 45.7034996011 45.7034996011 1297
Cu 24.0435077581 43.8985243559 43.8985243559 1693
Cu 25.8485191159 43.8985243559 45.7034996011 1699
Cu 25.8485191159 45.7034996011 43.8985243559 1736
Cu 24.0435077581 45.7034996011 45.7034996011 1738
Cu 27.6535304736 43.8985243559 43.8985243559 2134
Cu 29.4585057189 43.8985243559 45.7034996011 2140
Cu 29.4585057189 45.7034996011 43.8985243559 2177
Cu 27.6535304736 45.7034996011 45.7034996011 2179
Cu 31.2635170766 43.8985243559 43.8985243559 2575
Cu 33.0685284344 43.8985243559 45.7034996011 2581
Cu 33.0685284344 45.7034996011 43.8985243559 2618
Cu 31.2635170766 45.7034996011 45.7034996011 2620
Cu 34.8735036796 43.8985243559 43.8985243559 3016
Cu 34.8735036796 45.7034996011 45.7034996011 3061
Cu 36.6785150374 43.8985243559 45.7034996011 3022
Cu 36.6785150374 45.7034996011 43.8985243559 3059
Cu 38.4835263951 43.8985243559 43.8985243559 3457
Cu 38.4835263951 45.7034996011 45.7034996011 3502
Cu 40.2885016404 43.8985243559 45.7034996011 3463
Cu 40.2885016404 45.7034996011 43.8985243559 3500
Cu 42.0935129981 43.8985243559 43.8985243559 3898
Cu 42.0935129981 45.7034996011 45.7034996011 3943
Cu 43.8985243559 43.8985243559 45.7034996011 3904
Cu 43.8985243559 45.7034996011 43.8985243559 3941
Cu 45.7034996011 43.8985243559 43.8985243559 4339
Cu 45.7034996011 45.7034996011 45.7034996011 4384
Cu 47.5085109588 43.8985243559 45.7034996011 4345
Cu 47.5085109588 45.7034996011 43.8985243559 4382
Cu 49.3135223166 43.8985243559 43.8985243559 4596
Cu 49.3135223166 45.7034996011 45.7034996011 4618
Cu 13.213517073 47.5085109588 43.8985243559 412
Cu 15.0185159719 47.5085109588 45.7034996011 418
Cu 15.0185159719 49.3135223166 43.8985243559 438
Cu 13.213517073 49.3135223166 45.7034996011 439
Cu 16.8235345521 47.5085109588 43.8985243559 853
Cu 18.6285097974 47.5085109588 45.7034996011 859
Cu 18.6285097974 49.3135223166 43.8985243559 879
Cu 16.8235345521 49.3135223166 45.7034996011 880
Cu 20.4335211551 47.5085109588 43.8985243559 1294
Cu 22.2385325129 47.5085109588 45.7034996011 1300
Cu 22.2385325129 49.3135223166 43.8985243559 1320
Cu 20.4335211551 49.3135223166 45.7034996011 1321
Cu 24.0435077581 47.5085109588 43.8985243559 1735
Cu 25.8485191159 47.5085109588 45.7034996011 1741
Cu 25.8485191159 49.3135223166 43.8985243559 1761
Cu 24.0435077581 49.3135223166 45.7034996011 1762
Cu 27.6535304736 47.5085109588 43.8985243559 2176
Cu 29.4585057189 47.5085109588 45.7034996011 2182
Cu 29.4585057189 49.3135223166 43.8985243559 2202
Cu 27.6535304736 49.3135223166 45.7034996011 2203
Cu 31.2635170766 47.5085109588 43.8985243559 2617
Cu 33.0685284344 47.5085109588 45.7034996011 2623
Cu 33.0685284344 49.3135223166 43.8985243559 2643
Cu 31.2635170766 49.3135223166 45.7034996011 2644
Cu 34.8735036796 47.5085109588 43.8985243559 3058
Cu 34.8735036796 49.3135223166 45.7034996011 3085
Cu 36.6785150374 47.5085109588 45.7034996011 3064
Cu 36.6785150374 49.3135223166 43.8985243559 3084
Cu 38.4835263951 47.5085109588 43.8985243559 3499
Cu 38.4835263951 49.3135223166 45.7034996011 3526
Cu 40.2885016404 47.5085109588 45.7034996011 3505
Cu 40.2885016404 49.3135223166 43.8985243559 3525
Cu 42.0935129981 47.5085109588 43.8985243559 3940
Cu 42.0935129981 49.3135223166 45.7034996011 3967
Cu 43.8985243559 47.5085109588 45.7034996011 3946
Cu 43.8985243559 49.3135223166 43.8985243559 3966
Cu 45.7034996011 47.5085109588 43.8985243559 4381
Cu 45.7034996011 49.3135223166 45.7034996011 4408
Cu 47.5085109588 47.5085109588 45.7034996011 4387
Cu 47.5085109588 49.3135223166 43.8985243559 4407
Cu 49.3135223166 47.5085109588 43.8985243559 4617
Cu 49.3135223166 49.3135223166 45.7034996011 4630
Cu 13.213517073 15.0185159719 47.5085109588 38
Cu 15.0185159719 13.213517073 47.5085109588 39
Cu 13.213517073 13.213517073 49.3135223166 41
Cu 15.0185159719 15.0185159719 49.3135223166 42
Cu 16.8235345521 15.0185159719 47.5085109588 479
Cu 18.6285097974 13.213517073 47.5085109588 480
Cu 16.8235345521 13.213517073 49.3135223166 482
Cu 18.6285097974 15.0185159719 49.3135223166 483
Cu 20.4335211551 15.0185159719 47.5085109588 920
Cu 22.2385325129 13.213517073 47.5085109588 921
Cu 20.4335211551 13.213517073 49.3135223166 923
Cu 22.2385325129 15.0185159719 49.3135223166 924
Cu 24.0435077581 15.0185159719 47.5085109588 1361
Cu 25.8485191159 13.213517073 47.5085109588 1362
Cu 24.0435077581 13.213517073 49.3135223166 1364
Cu 25.8485191159 15.0185159719 49.3135223166 1365
Cu 27.6535304736 15.0185159719 47.5085109588 1802
Cu 29.4585057189 13.213517073 47.5085109588 1803
Cu 27.6535304736 13.213517073 49.3135223166 1805
Cu 29.4585057189 15.0185159719 49.3135223166 1806
Cu 31.2635170766 15.0185159719 47.5085109588 2243
Cu 33.0685284344 13.213517073 47.5085109588 2244
Cu 31.2635170766 13.213517073 49.3135223166 2246
Cu 33.0685284344 15.0185159719 49.3135223166 2247
Cu 34.8735036796 15.0185159719 47.5085109588 2684
Cu 34.8735036796 13.213517073 49.3135223166 2687
Cu 36.6785150374 13.213517073 47.5085109588 2685
Cu 36.6785150374 15.0185159719 49.3135223166 2688
Cu 38.4835263951 15.0185159719 47.5085109588 3125
Cu 38.4835263951 13.213517073 49.3135223166 3128
Cu 40.2885016404 13.213517073 47.5085109588 3126
Cu 40.2885016404 15.0185159719 49.3135223166 3129
Cu 42.0935129981 15.0185159719 47.5085109588 3566
Cu 42.0935129981 13.213517073 49.3135223166 3569
Cu 43.8985243559 13.213517073 47.5085109588 3567
Cu 43.8985243559 15.0185159719 49.3135223166 3570
Cu 45.7034996011 15.0185159719 47.5085109588 4007
Cu 45.7034996011 13.213517073 49.3135223166 4010
Cu 47.5085109588 13.213517073 47.5085109588 4008
Cu 47.5085109588 15.0185159719 49.3135223166 4011
Cu 49.3135223166 15.0185159719 47.5085109588 4430
Cu 49.3135223166 13.213517073 49.3135223166 4431
Cu 13.213517073 18.6285097974 47.5085109588 80
Cu 15.0185159719 16.8235345521 47.5085109588 81
Cu 13.213517073 16.8235345521 49.3135223166 83
Cu 15.0185159719 18.6285097974 49.3135223166 84
Cu 16.8235345521 18.6285097974 47.5085109588 521
Cu 18.6285097974 16.8235345521 47.5085109588 522
Cu 16.8235345521 16.8235345521 49.3135223166 524
Cu 18.6285097974 18.6285097974 49.3135223166 525
Cu 20.4335211551 18.6285097974 47.5085109588 962
Cu 22.2385325129 16.8235345521 47.5085109588 963
Cu 20.4335211551 16.8235345521 49.3135223166 965
Cu 22.2385325129 18.6285097974 49.3135223166 966
Cu 24.0435077581 18.6285097974 47.5085109588 1403
Cu 25.8485191159 16.8235345521 47.5085109588 1404
Cu 24.0435077581 16.8235345521 49.3135223166 1406
Cu 25.8485191159 18.6285097974 49.3135223166 1407
Cu 27.6535304736 18.6285097974 47.5085109588 1844
Cu 29.4585057189 16.8235345521 47.5085109588 1845
Cu 27.6535304736 16.8235345521 49.3135223166 1847
Cu 29.4585057189 18.6285097974 49.3135223166 1848
Cu 31.2635170766 18.6285097974 47.5085109588 2285
Cu 33.0685284344 16.8235345521 47.5085109588 2286
Cu 31.2635170766 16.8235345521 49.3135223166 2288
Cu 33.0685284344 18.6285097974 49.3135223166 2289
Cu 34.8735036796 18.6285097974 47.5085109588 2726
Cu 34.8735036796 16.8235345521 49.3135223166 2729
Cu 36.6785150374 16.8235345521 47.5085109588 2727
Cu 36.6785150374 18.6285097974 49.3135223166 2730
Cu 38.4835263951 18.6285097974 47.5085109588 3167
Cu 38.4835263951 16.8235345521 49.3135223166 3170
Cu 40.2885016404 16.8235345521 47.5085109588 3168
Cu 40.2885016404 18.6285097974 49.3135223166 3171
Cu 42.0935129981 18.6285097974 47.5085109588 3608
Cu 42.0935129981 16.8235345521 49.3135223166 3611
Cu 43.8985243559 16.8235345521 47.5085109588 3609
Cu 43.8985243559 18.6285097974 49.3135223166 3612
Cu 45.7034996011 18.6285097974 47.5085109588 4049
Cu 45.7034996011 16.8235345521 49.3135223166 4052
Cu 47.5085109588 16.8235345521 47.5085109588 4050
Cu 47.5085109588 18.6285097974 49.3135223166 4053
Cu 49.3135223166 18.6285097974 47.5085109588 4451
Cu 49.3135223166 16.8235345521 49.3135223166 4452
Cu 13.213517073 22.2385325129 47.5085109588 122
Cu 15.0185159719 20.4335211551 47.5085109588 123
Cu 13.213517073 20.4335211551 49.3135223166 125
Cu 15.0185159719 22.2385325129 49.3135223166 126
Cu 16.8235345521 22.2385325129 47.5085109588 563
Cu 18.6285097974 20.4335211551 47.5085109588 564
Cu 16.8235345521 20.4335211551 49.3135223166 566
Cu 18.6285097974 22.2385325129 49.3135223166 567
Cu 20.4335211551 22.2385325129 47.5085109588 1004
Cu 22.2385325129 20.4335211551 47.5085109588 1005
Cu 20.4335211551 20.4335211551 49.3135223166 1007
Cu 22.2385325129 22.2385325129 49.3135223166 1008
Cu 24.0435077581 22.2385325129 47.5085109588 1445
Cu 25.8485191159 20.4335211551 47.5085109588 1446
Cu 24.0435077581 20.4335211551 49.3135223166 1448
Cu 25.8485191159 22.2385325129 49.3135223166 1449
Cu 27.6535304736 22.2385325129 47.5085109588 1886
Cu 29.4585057189 20.4335211551 47.5085109588 1887
Cu 27.6535304736 20.4335211551 49.3135223166 1889
Cu 29.4585057189 22.2385325129 49.3135223166 1890
Cu 31.2635170766 22.2385325129 47.5085109588 2327
Cu 33.0685284344 20.4335211551 47.5085109588 2328
Cu 31.2635170766 20.4335211551 49.3135223166 2330
Cu 33.0685284344 22.2385325129 49.3135223166 2331
Cu 34.8735036796 22.2385325129 47.5085109588 2768
Cu 34.8735036796 20.4335211551 49.3135223166 2771
Cu 36.6785150374 20.4335211551 47.5085109588 2769
Cu 36.6785150374 22.2385325129 49.3135223166 2772
Cu 38.4835263951 22.2385325129 47.5085109588 3209
Cu 38.4835263951 20.4335211551 49.3135223166 3212
Cu 40.2885016404 20.4335211551 47.5085109588 3210
Cu 40.2885016404 22.2385325129 49.3135223166 3213
Cu 42.0935129981 22.2385325129 47.5085109588 3650
Cu 42.0935129981 20.4335211551 49.3135223166 3653
Cu 43.8985243559 20.4335211551 47.5085109588 3651
Cu 43.8985243559 22.2385325129 49.3135223166 3654
Cu 45.7034996011 22.2385325129 47.5085109588 4091
Cu 45.7034996011 20.4335211551 49.3135223166 4094
Cu 47.5085109588 20.4335211551 47.5085109588 4092
Cu 47.5085109588 22.2385325129 49.3135223166 4095
Cu 49.3135223166 22.2385325129 47.5085109588 4472
Cu 49.3135223166 20.4335211551 49.3135223166 4473
Cu 13.213517073 25.8485191159 47.5085109588 164
Cu 15.0185159719 24.0435077581 47.5085109588 165
Cu 13.213517073 24.0435077581 49.3135223166 167
Cu 15.0185159719 25.8485191159 49.3135223166 168
Cu 16.8235345521 25.8485191159 47.5085109588 605
Cu 18.6285097974 24.0435077581 47.5085109588 606
Cu 16.8235345521 24.0435077581 49.3135223166 608
Cu 18.6285097974 25.8485191159 49.3135223166 609
Cu 20.4335211551 25.8485191159 47.5085109588 1046
Cu 22.2385325129 24.0435077581 47.5085109588 1047
Cu 20.4335211551 24.0435077581 49.3135223166 1049
Cu 22.2385325129 25.8485191159 49.3135223166 1050
Cu 24.0435077581 25.8485191159 47.5085109588 1487
Cu 25.8485191159 24.0435077581 47.5085109588 1488
Cu 24.0435077581 24.0435077581 49.3135223166 1490
Cu 25.8485191159 25.8485191159 49.3135223166 1491
Cu 27.6535304736 25.8485191159 47.5085109588 1928
Cu 29.4585057189 24.0435077581 47.5085109588 1929
Cu 27.6535304736 24.0435077581 49.3135223166 1931
Cu 29.4585057189 25.8485191159 49.3135223166 1932
Cu 31.2635170766 25.8485191159 47.5085109588 2369
Cu 33.0685284344 24.0435077581 47.5085109588 2370
Cu 31.2635170766 24.0435077581 49.3135223166 2372
Cu 33.0685284344 25.8485191159 49.3135223166 2373
Cu 34.8735036796 25.8485191159 47.5085109588 2810
Cu 34.8735036796 24.0435077581 49.3135223166 2813
Cu 36.6785150374 24.0435077581 47.5085109588 2811
Cu 36.6785150374 25.8485191159 49.3135223166 2814
Cu 38.4835263951 25.8485191159 47.5085109588 3251
Cu 38.4835263951 24.0435077581 49.3135223166 3254
Cu 40.2885016404 24.0435077581 47.5085109588 3252
Cu 40.2885016404 25.8485191159 49.3135223166 3255
Cu 42.0935129981 25.8485191159 47.5085109588 3692
Cu 42.0935129981 24.0435077581 49.3135223166 3695
Cu 43.8985243559 24.0435077581 47.5085109588 3693
Cu 43.8985243559 25.8485191159 49.3135223166 3696
Cu 45.7034996011 25.8485191159 47.5085109588 4133
Cu 45.7034996011 24.0435077581 49.3135223166 4136
Cu 47.5085109588 24.0435077581 47.5085109588 4134
Cu 47.5085109588 25.8485191159 49.3135223166 4137
Cu 49.3135223166 25.8485191159 47.5085109588 4493
Cu 49.3135223166 24.0435077581 49.3135223166 4494
Cu 13.213517073 29.4585057189 47.5085109588 206
Cu 15.0185159719 27.6535304736 47.5085109588 207
Cu 13.213517073 27.6535304736 49.3135223166 209
Cu 15.0185159719 29.4585057189 49.3135223166 210
Cu 16.8235345521 29.4585057189 47.5085109588 647
Cu 18.6285097974 27.6535304736 47.5085109588 648
Cu 16.8235345521 27.6535304736 49.3135223166 650
Cu 18.6285097974 29.4585057189 49.3135223166 651
Cu 20.4335211551 29.4585057189 47.5085109588 1088
Cu 22.2385325129 27.6535304736 47.5085109588 1089
Cu 20.4335211551 27.6535304736 49.3135223166 1091
Cu 22.2385325129 29.4585057189 49.3135223166 1092
Cu 24.0435077581 29.4585057189 47.5085109588 1529
Cu 25.8485191159 27.6535304736 47.5085109588 1530
Cu 24.0435077581 27.6535304736 49.3135223166 1532
Cu 25.8485191159 29.4585057189 49.3135223166 1533
Cu 27.6535304736 29.4585057189 47.5085109588 1970
Cu 29.4585057189 27.6535304736 47.5085109588 1971
Cu 27.6535304736 27.6535304736 49.3135223166 1973
Cu 29.4585057189 29.4585057189 49.3135223166 1974
Cu 31.2635170766 29.4585057189 47.5085109588 2411
Cu 33.0685284344 27.6535304736 47.5085109588 2412
Cu 31.2635170766 27.6535304736 49.3135223166 2414
Cu 33.0685284344 29.4585057189 49.3135223166 2415
Cu 34.8735036796 29.4585057189 47.5085109588 2852
Cu 34.8735036796 27.6535304736 49.3135223166 2855
Cu 36.6785150374 27.6535304736 47.5085109588 2853
Cu 36.6785150374 29.4585057189 49.3135223166 2856
Cu 38.4835263951 29.4585057189 47.5085109588 3293
Cu 38.4835263951 27.6535304736 49.3135223166 3296
Cu 40.2885016404 27.6535304736 47.5085109588 3294
Cu 40.2885016404 29.4585057189 49.3135223166 3297
Cu 42.0935129981 29.4585057189 47.5085109588 3734
Cu 42.0935129981 27.6535304736 49.3135223166 3737
Cu 43.8985243559 27.6535304736 47.5085109588 3735
Cu 43.8985243559 29.4585057189 49.3135223166 3738
Cu 45.7034996011 29.4585057189 47.5085109588 4175
Cu 45.7034996011 27.6535304736 49.3135223166 4178
Cu 47.5085109588 27.6535304736 47.5085109588 4176
Cu 47.5085109588 29.4585057189 49.3135223166 4179
Cu 49.3135223166 29.4585057189 47.5085109588 4514
Cu 49.3135223166 27.6535304736 49.3135223166 4515
Cu 13.213517073 33.0685284344 47.5085109588 248
Cu 15.0185159719 31.2635170766 47.5085109588 249
Cu 13.213517073 31.2635170766 49.3135223166 251
Cu 15.0185159719 33.0685284344 49.3135223166 252
Cu 15.0185159719 34.8735036796 47.5085109588 291
Cu 13.213517073 34.8735036796 49.3135223166 293
Cu 16.8235345521 33.0685284344 47.5085109588 689
Cu 18.6285097974 31.2635170766 47.5085109588 690
Cu 16.8235345521 31.2635170766 49.3135223166 692
Cu 18.6285097974 33.0685284344 49.3135223166 693
Cu 18.6285097974 34.8735036796 47.5085109588 732
Cu 16.8235345521 34.8735036796 49.3135223166 734
Cu 20.4335211551 33.0685284344 47.5085109588 1130
Cu 22.2385325129 31.2635170766 47.5085109588 1131
Cu 20.4335211551 31.2635170766 49.3135223166 1133
Cu 22.2385325129 33.0685284344 49.3135223166 1134
Cu 22.2385325129 34.8735036796 47.5085109588 1173
Cu 20.4335211551 34.8735036796 49.3135223166 1175
Cu 24.0435077581 33.0685284344 47.5085109588 1571
Cu 25.8485191159 31.2635170766 47.5085109588 1572
Cu 24.0435077581 31.2635170766 49.3135223166 1574
Cu 25.8485191159 33.0685284344 49.3135223166 1575
Cu 25.8485191159 34.8735036796 47.5085109588 1614
Cu 24.0435077581 34.8735036796 49.3135223166 1616
Cu 27.6535304736 33.0685284344 47.5085109588 2012
Cu 29.4585057189 31.2635170766 47.5085109588 2013
Cu 27.6535304736 31.2635170766 49.3135223166 2015
Cu 29.4585057189 33.0685284344 49.3135223166 2016
Cu 29.4585057189 34.8735036796 47.5085109588 2055
Cu 27.6535304736 34.8735036796 49.3135223166 2057
Cu 31.2635170766 33.0685284344 47.5085109588 2453
Cu 33.0685284344 31.2635170766 47.5085109588 2454
Cu 31.2635170766 31.2635170766 49.3135223166 2456
Cu 33.0685284344 33.0685284344 49.3135223166 2457
Cu 33.0685284344 34.8735036796 47.5085109588 2496
Cu 31.2635170766 34.8735036796 49.3135223166 2498
Cu 34.8735036796 33.0685284344 47.5085109588 2894
Cu 34.8735036796 31.2635170766 49.3135223166 2897
Cu 34.8735036796 34.8735036796 49.3135223166 2939
Cu 36.6785150374 31.2635170766 47.5085109588 2895
Cu 36.6785150374 33.0685284344 49.3135223166 2898
Cu 36.6785150374 34.8735036796 47.5085109588 2937
Cu 38.4835263951 33.0685284344 47.5085109588 3335
Cu 38.4835263951 31.2635170766 49.3135223166 3338
Cu 38.4835263951 34.8735036796 49.3135223166 3380
Cu 40.2885016404 31.2635170766 47.5085109588 3336
Cu 40.2885016404 33.0685284344 49.3135223166 3339
Cu 40.2885016404 34.8735036796 47.5085109588 3378
Cu 42.0935129981 33.0685284344 47.5085109588 3776
Cu 42.0935129981 31.2635170766 49.3135223166 3779
Cu 42.0935129981 34.8735036796 49.3135223166 3821
Cu 43.8985243559 31.2635170766 47.5085109588 3777
Cu 43.8985243559 33.0685284344 49.3135223166 3780
Cu 43.8985243559 34.8735036796 47.5085109588 3819
Cu 45.7034996011 33.0685284344 47.5085109588 4217
Cu 45.7034996011 31.2635170766 49.3135223166 4220
Cu 45.7034996011 34.8735036796 49.3135223166 4262
Cu 47.5085109588 31.2635170766 47.5085109588 4218
Cu 47.5085109588 33.0685284344 49.3135223166 4221
Cu 47.5085109588 34.8735036796 47.5085109588 4260
Cu 49.3135223166 33.0685284344 47.5085109588 4535
Cu 49.3135223166 31.2635170766 49.3135223166 4536
Cu 49.3135223166 34.8735036796 49.3135223166 4557
Cu 13.213517073 36.6785150374 47.5085109588 290
Cu 15.0185159719 36.6785150374 49.3135223166 294
Cu 15.0185159719 38.4835263951 47.5085109588 333
Cu 13.213517073 38.4835263951 49.3135223166 335
Cu 16.8235345521 36.6785150374 47.5085109588 731
Cu 18.6285097974 36.6785150374 49.3135223166 735
Cu 18.6285097974 38.4835263951 47.5085109588 774
Cu 16.8235345521 38.4835263951 49.3135223166 776
Cu 20.4335211551 36.6785150374 47.5085109588 1172
Cu 22.2385325129 36.6785150374 49.3135223166 1176
Cu 22.2385325129 38.4835263951 47.5085109588 1215
Cu 20.4335211551 38.4835263951 49.3135223166 1217
Cu 24.0435077581 36.6785150374 47.5085109588 1613
Cu 25.8485191159 36.6785150374 49.3135223166 1617
Cu 25.8485191159 38.4835263951 47.5085109588 1656
Cu 24.0435077581 38.4835263951 49.3135223166 1658
Cu 27.6535304736 36.6785150374 47.5085109588 2054
Cu 29.4585057189 36.6785150374 49.3135223166 2058
Cu 29.4585057189 38.4835263951 47.5085109588 2097
Cu 27.6535304736 38.4835263951 49.3135223166 2099
Cu 31.2635170766 36.6785150374 47.5085109588 2495
Cu 33.0685284344 36.6785150374 49.3135223166 2499
Cu 33.0685284344 38.4835263951 47.5085109588 2538
Cu 31.2635170766 38.4835263951 49.3135223166 2540
Cu 34.8735036796 36.6785150374 47.5085109588 2936
Cu 34.8735036796 38.4835263951 49.3135223166 2981
Cu 36.6785150374 36.6785150374 49.3135223166 2940
Cu 36.6785150374 38.4835263951 47.5085109588 2979
Cu 38.4835263951 36.6785150374 47.5085109588 3377
Cu 38.4835263951 38.4835263951 49.3135223166 3422
Cu 40.2885016404 36.6785150374 49.3135223166 3381
Cu 40.2885016404 38.4835263951 47.5085109588 3420
Cu 42.0935129981 36.6785150374 47.5085109588 3818
Cu 42.0935129981 38.4835263951 49.3135223166 3863
Cu 43.8985243559 36.6785150374 49.3135223166 3822
Cu 43.8985243559 38.4835263951 47.5085109588 3861
Cu 45.7034996011 36.6785150374 47.5085109588 4259
Cu 45.7034996011 38.4835263951 49.3135223166 4304
Cu 47.5085109588 36.6785150374 49.3135223166 4263
Cu 47.5085109588 38.4835263951 47.5085109588 4302
Cu 49.3135223166 36.6785150374 47.5085109588 4556
Cu 49.3135223166 38.4835263951 49.3135223166 4578
Cu 13.213517073 40.2885016404 47.5085109588 332
Cu 15.0185159719 40.2885016404 49.3135223166 336
Cu 15.0185159719 42.0935129981 47.5085109588 375
Cu 13.213517073 42.0935129981 49.3135223166 377
Cu 16.8235345521 40.2885016404 47.5085109588 773
Cu 18.6285097974 40.2885016404 49.3135223166 777
Cu 18.6285097974 42.0935129981 47.5085109588 816
Cu 16.8235345521 42.0935129981 49.3135223166 818
Cu 20.4335211551 40.2885016404 47.5085109588 1214
Cu 22.2385325129 40.2885016404 49.3135223166 1218
Cu 22.2385325129 42.0935129981 47.5085109588 1257
Cu 20.4335211551 42.0935129981 49.3135223166 1259
Cu 24.0435077581 40.2885016404 47.5085109588 1655
Cu 25.8485191159 40.2885016404 49.3135223166 1659
Cu 25.8485191159 42.0935129981 47.5085109588 1698
Cu 24.0435077581 42.0935129981 49.3135223166 1700
Cu 27.6535304736 40.2885016404 47.5085109588 2096
Cu 29.4585057189 40.2885016404 49.3135223166 2100
Cu 29.4585057189 42.0935129981 47.5085109588 2139
Cu 27.6535304736 42.0935129981 49.3135223166 2141
Cu 31.2635170766 40.2885016404 47.5085109588 2537
Cu 33.0685284344 40.2885016404 49.3135223166 2541
Cu 33.0685284344 42.0935129981 47.5085109588 2580
Cu 31.2635170766 42.0935129981 49.3135223166 2582
Cu 34.8735036796 40.2885016404 47.5085109588 2978
Cu 34.8735036796 42.0935129981 49.3135223166 3023
Cu 36.6785150374 40.2885016404 49.3135223166 2982
Cu 36.6785150374 42.0935129981 47.5085109588 3021
Cu 38.4835263951 40.2885016404 47.5085109588 3419
Cu 38.4835263951 42.0935129981 49.3135223166 3464
Cu 40.2885016404 40.2885016404 49.3135223166 3423
Cu 40.2885016404 42.0935129981 47.5085109588 3462
Cu 42.0935129981 40.2885016404 47.5085109588 3860
Cu 42.0935129981 42.0935129981 49.3135223166 3905
Cu 43.8985243559 40.2885016404 49.3135223166 3864
Cu 43.8985243559 42.0935129981 47.5085109588 3903
Cu 45.7034996011 40.2885016404 47.5085109588 4301
Cu 45.7034996011 42.0935129981 49.3135223166 4346
Cu 47.5085109588 40.2885016404 49.3135223166 4305
Cu 47.5085109588 42.0935129981 47.5085109588 4344
Cu 49.3135223166 40.2885016404 47.5085109588 4577
Cu 49.3135223166 42.0935129981 49.3135223166 4599
Cu 13.213517073 43.8985243559 47.5085109588 374
Cu 15.0185159719 43.8985243559 49.3135223166 378
Cu 15.0185159719 45.7034996011 47.5085109588 417
Cu 13.213517073 45.7034996011 49.3135223166 419
Cu 16.8235345521 43.8985243559 47.5085109588 815
Cu 18.6285097974 43.8985243559 49.3135223166 819
Cu 18.6285097974 45.7034996011 47.5085109588 858
Cu 16.8235345521 45.7034996011 49.3135223166 860
Cu 20.4335211551 43.8985243559 47.5085109588 1256
Cu 22.2385325129 43.8985243559 49.3135223166 1260
Cu 22.2385325129 45.7034996011 47.5085109588 1299
Cu 20.4335211551 45.7034996011 49.3135223166 1301
Cu 24.0435077581 43.8985243559 47.5085109588 1697
Cu 25.8485191159 43.8985243559 49.3135223166 1701
Cu 25.8485191159 45.7034996011 47.5085109588 1740
Cu 24.0435077581 45.7034996011 49.3135223166 1742
Cu 27.6535304736 43.8985243559 47.5085109588 2138
Cu 29.4585057189 43.8985243559 49.3135223166 2142
Cu 29.4585057189 45.7034996011 47.5085109588 2181
Cu 27.6535304736 45.7034996011 49.3135223166 2183
Cu 31.2635170766 43.8985243559 47.5085109588 2579
Cu 33.0685284344 43.8985243559 49.3135223166 2583
Cu 33.0685284344 45.7034996011 47.5085109588 2622
Cu 31.2635170766 45.7034996011 49.3135223166 2624
Cu 34.8735036796 43.8985243559 47.5085109588 3020
Cu 34.8735036796 45.7034996011 49.3135223166 3065
Cu 36.6785150374 43.8985243559 49.3135223166 3024
Cu 36.6785150374 45.7034996011 47.5085109588 3063
Cu 38.4835263951 43.8985243559 47.5085109588 3461
Cu 38.4835263951 45.7034996011 49.3135223166 3506
Cu 40.2885016404 43.8985243559 49.3135223166 3465
Cu 40.2885016404 45.7034996011 47.5085109588 3504
Cu 42.0935129981 43.8985243559 47.5085109588 3902
Cu 42.0935129981 45.7034996011 49.3135223166 3947
Cu 43.8985243559 43.8985243559 49.3135223166 3906
Cu 43.8985243559 45.7034996011 47.5085109588 3945
Cu 45.7034996011 43.8985243559 47.5085109588 4343
Cu 45.7034996011 45.7034996011 49.3135223166 4388
Cu 47.5085109588 43.8985243559 49.3135223166 4347
Cu 47.5085109588 45.7034996011 47.5085109588 4386
Cu 49.3135223166 43.8985243559 47.5085109588 4598
Cu 49.3135223166 45.7034996011 49.3135223166 4620
Cu 13.213517073 47.5085109588 47.5085109588 416
Cu 15.0185159719 47.5085109588 49.3135223166 420
Cu 15.0185159719 49.3135223166 47.5085109588 440
Cu 13.213517073 49.3135223166 49.3135223166 441
Cu 16.8235345521 47.5085109588 47.5085109588 857
Cu 18.6285097974 47.5085109588 49.3135223166 861
Cu 18.6285097974 49.3135223166 47.5085109588 881
Cu 16.8235345521 49.3135223166 49.3135223166 882
Cu 20.4335211551 47.5085109588 47.5085109588 1298
Cu 22.2385325129 47.5085109588 49.3135223166 1302
Cu 22.2385325129 49.3135223166 47.5085109588 1322
Cu 20.4335211551 49.3135223166 49.3135223166 1323
Cu 24.0435077581 47.5085109588 47.5085109588 1739
Cu 25.8485191159 47.5085109588 49.3135223166 1743
Cu 25.8485191159 49.3135223166 47.5085109588 1763
Cu 24.0435077581 49.3135223166 49.3135223166 1764
Cu 27.6535304736 47.5085109588 47.5085109588 2180
Cu 29.4585057189 47.5085109588 49.3135223166 2184
Cu 29.4585057189 49.3135223166 47.5085109588 2204
Cu 27.6535304736 49.3135223166 49.3135223166 2205
Cu 31.2635170766 47.5085109588 47.5085109588 2621
Cu 33.0685284344 47.5085109588 49.3135223166 2625
Cu 33.0685284344 49.3135223166 47.5085109588 2645
Cu 31.2635170766 49.3135223166 49.3135223166 2646
Cu 34.8735036796 47.5085109588 47.5085109588 3062
Cu 34.8735036796 49.3135223166 49.3135223166 3087
Cu 36.6785150374 47.5085109588 49.3135223166 3066
Cu 36.6785150374 49.3135223166 47.5085109588 3086
Cu 38.4835263951 47.5085109588 47.5085109588 3503
Cu 38.4835263951 49.3135223166 49.3135223166 3528
Cu 40.2885016404 47.5085109588 49.3135223166 3507
Cu 40.2885016404 49.3135223166 47.5085109588 3527
Cu 42.0935129981 47.5085109588 47.5085109588 3944
Cu 42.0935129981 49.3135223166 49.3135223166 3969
Cu 43.8985243559 47.5085109588 49.3135223166 3948
Cu 43.8985243559 49.3135223166 47.5085109588 3968
Cu 45.7034996011 47.5085109588 47.5085109588 4385
Cu 45.7034996011 49.3135223166 49.3135223166 4410
Cu 47.5085109588 47.5085109588 49.3135223166 4389
Cu 47.5085109588 49.3135223166 47.5085109588 4409
Cu 49.3135223166 47.5085109588 47.5085109588 4619
Cu 49.3135223166 49.3135223166 49.3135223166 4631
