4631
Generated XYZ file with optional properties
Cu -18.050000 -18.050000 -18.050000
Cu -18.050000 -16.245001 -16.245001
Cu -16.245001 -18.050000 -16.245001
Cu -16.245001 -16.245001 -18.050000
Cu -14.439982 -18.050000 -18.050000
Cu -14.439982 -16.245001 -16.245001
Cu -12.635007 -18.050000 -16.245001
Cu -12.635007 -16.245001 -18.050000
Cu -10.829996 -18.050000 -18.050000
Cu -10.829996 -16.245001 -16.245001
Cu -9.024984 -18.050000 -16.245001
Cu -9.024984 -16.245001 -18.050000
Cu -7.220009 -18.050000 -18.050000
Cu -7.220009 -16.245001 -16.245001
Cu -5.414998 -18.050000 -16.245001
Cu -5.414998 -16.245001 -18.050000
Cu -3.609987 -18.050000 -18.050000
Cu -3.609987 -16.245001 -16.245001
Cu -1.805011 -18.050000 -16.245001
Cu -1.805011 -16.245001 -18.050000
Cu 0.000000 -18.050000 -18.050000
Cu 0.000000 -16.245001 -16.245001
Cu 1.805011 -18.050000 -16.245001
Cu 1.805011 -16.245001 -18.050000
Cu 3.609987 -18.050000 -18.050000
Cu 3.609987 -16.245001 -16.245001
Cu 5.414998 -18.050000 -16.245001
Cu 5.414998 -16.245001 -18.050000
Cu 7.220009 -18.050000 -18.050000
Cu 7.220009 -16.245001 -16.245001
Cu 9.024985 -18.050000 -16.245001
Cu 9.024985 -16.245001 -18.050000
Cu 10.829996 -18.050000 -18.050000
Cu 10.829996 -16.245001 -16.245001
Cu 12.635007 -18.050000 -16.245001
Cu 12.635007 -16.245001 -18.050000
Cu 14.439983 -18.050000 -18.050000
Cu 14.439983 -16.245001 -16.245001
Cu 16.244994 -18.050000 -16.245001
Cu 16.244994 -16.245001 -18.050000
Cu 18.050005 -18.050000 -18.050000
Cu 18.050005 -16.245001 -16.245001
Cu -18.050000 -14.439982 -18.050000
Cu -18.050000 -12.635007 -16.245001
Cu -16.245001 -14.439982 -16.245001
Cu -16.245001 -12.635007 -18.050000
Cu -14.439982 -14.439982 -18.050000
Cu -14.439982 -12.635007 -16.245001
Cu -12.635007 -14.439982 -16.245001
Cu -12.635007 -12.635007 -18.050000
Cu -10.829996 -14.439982 -18.050000
Cu -10.829996 -12.635007 -16.245001
Cu -9.024984 -14.439982 -16.245001
Cu -9.024984 -12.635007 -18.050000
Cu -7.220009 -14.439982 -18.050000
Cu -7.220009 -12.635007 -16.245001
Cu -5.414998 -14.439982 -16.245001
Cu -5.414998 -12.635007 -18.050000
Cu -3.609987 -14.439982 -18.050000
Cu -3.609987 -12.635007 -16.245001
Cu -1.805011 -14.439982 -16.245001
Cu -1.805011 -12.635007 -18.050000
Cu 0.000000 -14.439982 -18.050000
Cu 0.000000 -12.635007 -16.245001
Cu 1.805011 -14.439982 -16.245001
Cu 1.805011 -12.635007 -18.050000
Cu 3.609987 -14.439982 -18.050000
Cu 3.609987 -12.635007 -16.245001
Cu 5.414998 -14.439982 -16.245001
Cu 5.414998 -12.635007 -18.050000
Cu 7.220009 -14.439982 -18.050000
Cu 7.220009 -12.635007 -16.245001
Cu 9.024985 -14.439982 -16.245001
Cu 9.024985 -12.635007 -18.050000
Cu 10.829996 -14.439982 -18.050000
Cu 10.829996 -12.635007 -16.245001
Cu 12.635007 -14.439982 -16.245001
Cu 12.635007 -12.635007 -18.050000
Cu 14.439983 -14.439982 -18.050000
Cu 14.439983 -12.635007 -16.245001
Cu 16.244994 -14.439982 -16.245001
Cu 16.244994 -12.635007 -18.050000
Cu 18.050005 -14.439982 -18.050000
Cu 18.050005 -12.635007 -16.245001
Cu -18.050000 -10.829996 -18.050000
Cu -18.050000 -9.024984 -16.245001
Cu -16.245001 -10.829996 -16.245001
Cu -16.245001 -9.024984 -18.050000
Cu -14.439982 -10.829996 -18.050000
Cu -14.439982 -9.024984 -16.245001
Cu -12.635007 -10.829996 -16.245001
Cu -12.635007 -9.024984 -18.050000
Cu -10.829996 -10.829996 -18.050000
Cu -10.829996 -9.024984 -16.245001
Cu -9.024984 -10.829996 -16.245001
Cu -9.024984 -9.024984 -18.050000
Cu -7.220009 -10.829996 -18.050000
Cu -7.220009 -9.024984 -16.245001
Cu -5.414998 -10.829996 -16.245001
Cu -5.414998 -9.024984 -18.050000
Cu -3.609987 -10.829996 -18.050000
Cu -3.609987 -9.024984 -16.245001
Cu -1.805011 -10.829996 -16.245001
Cu -1.805011 -9.024984 -18.050000
Cu 0.000000 -10.829996 -18.050000
Cu 0.000000 -9.024984 -16.245001
Cu 1.805011 -10.829996 -16.245001
Cu 1.805011 -9.024984 -18.050000
Cu 3.609987 -10.829996 -18.050000
Cu 3.609987 -9.024984 -16.245001
Cu 5.414998 -10.829996 -16.245001
Cu 5.414998 -9.024984 -18.050000
Cu 7.220009 -10.829996 -18.050000
Cu 7.220009 -9.024984 -16.245001
Cu 9.024985 -10.829996 -16.245001
Cu 9.024985 -9.024984 -18.050000
Cu 10.829996 -10.829996 -18.050000
Cu 10.829996 -9.024984 -16.245001
Cu 12.635007 -10.829996 -16.245001
Cu 12.635007 -9.024984 -18.050000
Cu 14.439983 -10.829996 -18.050000
Cu 14.439983 -9.024984 -16.245001
Cu 16.244994 -10.829996 -16.245001
Cu 16.244994 -9.024984 -18.050000
Cu 18.050005 -10.829996 -18.050000
Cu 18.050005 -9.024984 -16.245001
Cu -18.050000 -7.220009 -18.050000
Cu -18.050000 -5.414998 -16.245001
Cu -16.245001 -7.220009 -16.245001
Cu -16.245001 -5.414998 -18.050000
Cu -14.439982 -7.220009 -18.050000
Cu -14.439982 -5.414998 -16.245001
Cu -12.635007 -7.220009 -16.245001
Cu -12.635007 -5.414998 -18.050000
Cu -10.829996 -7.220009 -18.050000
Cu -10.829996 -5.414998 -16.245001
Cu -9.024984 -7.220009 -16.245001
Cu -9.024984 -5.414998 -18.050000
Cu -7.220009 -7.220009 -18.050000
Cu -7.220009 -5.414998 -16.245001
Cu -5.414998 -7.220009 -16.245001
Cu -5.414998 -5.414998 -18.050000
Cu -3.609987 -7.220009 -18.050000
Cu -3.609987 -5.414998 -16.245001
Cu -1.805011 -7.220009 -16.245001
Cu -1.805011 -5.414998 -18.050000
Cu 0.000000 -7.220009 -18.050000
Cu 0.000000 -5.414998 -16.245001
Cu 1.805011 -7.220009 -16.245001
Cu 1.805011 -5.414998 -18.050000
Cu 3.609987 -7.220009 -18.050000
Cu 3.609987 -5.414998 -16.245001
Cu 5.414998 -7.220009 -16.245001
Cu 5.414998 -5.414998 -18.050000
Cu 7.220009 -7.220009 -18.050000
Cu 7.220009 -5.414998 -16.245001
Cu 9.024985 -7.220009 -16.245001
Cu 9.024985 -5.414998 -18.050000
Cu 10.829996 -7.220009 -18.050000
Cu 10.829996 -5.414998 -16.245001
Cu 12.635007 -7.220009 -16.245001
Cu 12.635007 -5.414998 -18.050000
Cu 14.439983 -7.220009 -18.050000
Cu 14.439983 -5.414998 -16.245001
Cu 16.244994 -7.220009 -16.245001
Cu 16.244994 -5.414998 -18.050000
Cu 18.050005 -7.220009 -18.050000
Cu 18.050005 -5.414998 -16.245001
Cu -18.050000 -3.609987 -18.050000
Cu -18.050000 -1.805011 -16.245001
Cu -16.245001 -3.609987 -16.245001
Cu -16.245001 -1.805011 -18.050000
Cu -14.439982 -3.609987 -18.050000
Cu -14.439982 -1.805011 -16.245001
Cu -12.635007 -3.609987 -16.245001
Cu -12.635007 -1.805011 -18.050000
Cu -10.829996 -3.609987 -18.050000
Cu -10.829996 -1.805011 -16.245001
Cu -9.024984 -3.609987 -16.245001
Cu -9.024984 -1.805011 -18.050000
Cu -7.220009 -3.609987 -18.050000
Cu -7.220009 -1.805011 -16.245001
Cu -5.414998 -3.609987 -16.245001
Cu -5.414998 -1.805011 -18.050000
Cu -3.609987 -3.609987 -18.050000
Cu -3.609987 -1.805011 -16.245001
Cu -1.805011 -3.609987 -16.245001
Cu -1.805011 -1.805011 -18.050000
Cu 0.000000 -3.609987 -18.050000
Cu 0.000000 -1.805011 -16.245001
Cu 1.805011 -3.609987 -16.245001
Cu 1.805011 -1.805011 -18.050000
Cu 3.609987 -3.609987 -18.050000
Cu 3.609987 -1.805011 -16.245001
Cu 5.414998 -3.609987 -16.245001
Cu 5.414998 -1.805011 -18.050000
Cu 7.220009 -3.609987 -18.050000
Cu 7.220009 -1.805011 -16.245001
Cu 9.024985 -3.609987 -16.245001
Cu 9.024985 -1.805011 -18.050000
Cu 10.829996 -3.609987 -18.050000
Cu 10.829996 -1.805011 -16.245001
Cu 12.635007 -3.609987 -16.245001
Cu 12.635007 -1.805011 -18.050000
Cu 14.439983 -3.609987 -18.050000
Cu 14.439983 -1.805011 -16.245001
Cu 16.244994 -3.609987 -16.245001
Cu 16.244994 -1.805011 -18.050000
Cu 18.050005 -3.609987 -18.050000
Cu 18.050005 -1.805011 -16.245001
Cu -18.050000 0.000000 -18.050000
Cu -18.050000 1.805011 -16.245001
Cu -16.245001 0.000000 -16.245001
Cu -16.245001 1.805011 -18.050000
Cu -18.050000 3.609987 -18.050000
Cu -16.245001 3.609987 -16.245001
Cu -14.439982 0.000000 -18.050000
Cu -14.439982 1.805011 -16.245001
Cu -12.635007 0.000000 -16.245001
Cu -12.635007 1.805011 -18.050000
Cu -14.439982 3.609987 -18.050000
Cu -12.635007 3.609987 -16.245001
Cu -10.829996 0.000000 -18.050000
Cu -10.829996 1.805011 -16.245001
Cu -9.024984 0.000000 -16.245001
Cu -9.024984 1.805011 -18.050000
Cu -10.829996 3.609987 -18.050000
Cu -9.024984 3.609987 -16.245001
Cu -7.220009 0.000000 -18.050000
Cu -7.220009 1.805011 -16.245001
Cu -5.414998 0.000000 -16.245001
Cu -5.414998 1.805011 -18.050000
Cu -7.220009 3.609987 -18.050000
Cu -5.414998 3.609987 -16.245001
Cu -3.609987 0.000000 -18.050000
Cu -3.609987 1.805011 -16.245001
Cu -1.805011 0.000000 -16.245001
Cu -1.805011 1.805011 -18.050000
Cu -3.609987 3.609987 -18.050000
Cu -1.805011 3.609987 -16.245001
Cu 0.000000 0.000000 -18.050000
Cu 0.000000 1.805011 -16.245001
Cu 1.805011 0.000000 -16.245001
Cu 1.805011 1.805011 -18.050000
Cu 0.000000 3.609987 -18.050000
Cu 1.805011 3.609987 -16.245001
Cu 3.609987 0.000000 -18.050000
Cu 3.609987 1.805011 -16.245001
Cu 3.609987 3.609987 -18.050000
Cu 5.414998 0.000000 -16.245001
Cu 5.414998 1.805011 -18.050000
Cu 5.414998 3.609987 -16.245001
Cu 7.220009 0.000000 -18.050000
Cu 7.220009 1.805011 -16.245001
Cu 7.220009 3.609987 -18.050000
Cu 9.024985 0.000000 -16.245001
Cu 9.024985 1.805011 -18.050000
Cu 9.024985 3.609987 -16.245001
Cu 10.829996 0.000000 -18.050000
Cu 10.829996 1.805011 -16.245001
Cu 10.829996 3.609987 -18.050000
Cu 12.635007 0.000000 -16.245001
Cu 12.635007 1.805011 -18.050000
Cu 12.635007 3.609987 -16.245001
Cu 14.439983 0.000000 -18.050000
Cu 14.439983 1.805011 -16.245001
Cu 14.439983 3.609987 -18.050000
Cu 16.244994 0.000000 -16.245001
Cu 16.244994 1.805011 -18.050000
Cu 16.244994 3.609987 -16.245001
Cu 18.050005 0.000000 -18.050000
Cu 18.050005 1.805011 -16.245001
Cu 18.050005 3.609987 -18.050000
Cu -18.050000 5.414998 -16.245001
Cu -16.245001 5.414998 -18.050000
Cu -18.050000 7.220009 -18.050000
Cu -16.245001 7.220009 -16.245001
Cu -14.439982 5.414998 -16.245001
Cu -12.635007 5.414998 -18.050000
Cu -14.439982 7.220009 -18.050000
Cu -12.635007 7.220009 -16.245001
Cu -10.829996 5.414998 -16.245001
Cu -9.024984 5.414998 -18.050000
Cu -10.829996 7.220009 -18.050000
Cu -9.024984 7.220009 -16.245001
Cu -7.220009 5.414998 -16.245001
Cu -5.414998 5.414998 -18.050000
Cu -7.220009 7.220009 -18.050000
Cu -5.414998 7.220009 -16.245001
Cu -3.609987 5.414998 -16.245001
Cu -1.805011 5.414998 -18.050000
Cu -3.609987 7.220009 -18.050000
Cu -1.805011 7.220009 -16.245001
Cu 0.000000 5.414998 -16.245001
Cu 1.805011 5.414998 -18.050000
Cu 0.000000 7.220009 -18.050000
Cu 1.805011 7.220009 -16.245001
Cu 3.609987 5.414998 -16.245001
Cu 3.609987 7.220009 -18.050000
Cu 5.414998 5.414998 -18.050000
Cu 5.414998 7.220009 -16.245001
Cu 7.220009 5.414998 -16.245001
Cu 7.220009 7.220009 -18.050000
Cu 9.024985 5.414998 -18.050000
Cu 9.024985 7.220009 -16.245001
Cu 10.829996 5.414998 -16.245001
Cu 10.829996 7.220009 -18.050000
Cu 12.635007 5.414998 -18.050000
Cu 12.635007 7.220009 -16.245001
Cu 14.439983 5.414998 -16.245001
Cu 14.439983 7.220009 -18.050000
Cu 16.244994 5.414998 -18.050000
Cu 16.244994 7.220009 -16.245001
Cu 18.050005 5.414998 -16.245001
Cu 18.050005 7.220009 -18.050000
Cu -18.050000 9.024985 -16.245001
Cu -16.245001 9.024985 -18.050000
Cu -18.050000 10.829996 -18.050000
Cu -16.245001 10.829996 -16.245001
Cu -14.439982 9.024985 -16.245001
Cu -12.635007 9.024985 -18.050000
Cu -14.439982 10.829996 -18.050000
Cu -12.635007 10.829996 -16.245001
Cu -10.829996 9.024985 -16.245001
Cu -9.024984 9.024985 -18.050000
Cu -10.829996 10.829996 -18.050000
Cu -9.024984 10.829996 -16.245001
Cu -7.220009 9.024985 -16.245001
Cu -5.414998 9.024985 -18.050000
Cu -7.220009 10.829996 -18.050000
Cu -5.414998 10.829996 -16.245001
Cu -3.609987 9.024985 -16.245001
Cu -1.805011 9.024985 -18.050000
Cu -3.609987 10.829996 -18.050000
Cu -1.805011 10.829996 -16.245001
Cu 0.000000 9.024985 -16.245001
Cu 1.805011 9.024985 -18.050000
Cu 0.000000 10.829996 -18.050000
Cu 1.805011 10.829996 -16.245001
Cu 3.609987 9.024985 -16.245001
Cu 3.609987 10.829996 -18.050000
Cu 5.414998 9.024985 -18.050000
Cu 5.414998 10.829996 -16.245001
Cu 7.220009 9.024985 -16.245001
Cu 7.220009 10.829996 -18.050000
Cu 9.024985 9.024985 -18.050000
Cu 9.024985 10.829996 -16.245001
Cu 10.829996 9.024985 -16.245001
Cu 10.829996 10.829996 -18.050000
Cu 12.635007 9.024985 -18.050000
Cu 12.635007 10.829996 -16.245001
Cu 14.439983 9.024985 -16.245001
Cu 14.439983 10.829996 -18.050000
Cu 16.244994 9.024985 -18.050000
Cu 16.244994 10.829996 -16.245001
Cu 18.050005 9.024985 -16.245001
Cu 18.050005 10.829996 -18.050000
Cu -18.050000 12.635007 -16.245001
Cu -16.245001 12.635007 -18.050000
Cu -18.050000 14.439983 -18.050000
Cu -16.245001 14.439983 -16.245001
Cu -14.439982 12.635007 -16.245001
Cu -12.635007 12.635007 -18.050000
Cu -14.439982 14.439983 -18.050000
Cu -12.635007 14.439983 -16.245001
Cu -10.829996 12.635007 -16.245001
Cu -9.024984 12.635007 -18.050000
Cu -10.829996 14.439983 -18.050000
Cu -9.024984 14.439983 -16.245001
Cu -7.220009 12.635007 -16.245001
Cu -5.414998 12.635007 -18.050000
Cu -7.220009 14.439983 -18.050000
Cu -5.414998 14.439983 -16.245001
Cu -3.609987 12.635007 -16.245001
Cu -1.805011 12.635007 -18.050000
Cu -3.609987 14.439983 -18.050000
Cu -1.805011 14.439983 -16.245001
Cu 0.000000 12.635007 -16.245001
Cu 1.805011 12.635007 -18.050000
Cu 0.000000 14.439983 -18.050000
Cu 1.805011 14.439983 -16.245001
Cu 3.609987 12.635007 -16.245001
Cu 3.609987 14.439983 -18.050000
Cu 5.414998 12.635007 -18.050000
Cu 5.414998 14.439983 -16.245001
Cu 7.220009 12.635007 -16.245001
Cu 7.220009 14.439983 -18.050000
Cu 9.024985 12.635007 -18.050000
Cu 9.024985 14.439983 -16.245001
Cu 10.829996 12.635007 -16.245001
Cu 10.829996 14.439983 -18.050000
Cu 12.635007 12.635007 -18.050000
Cu 12.635007 14.439983 -16.245001
Cu 14.439983 12.635007 -16.245001
Cu 14.439983 14.439983 -18.050000
Cu 16.244994 12.635007 -18.050000
Cu 16.244994 14.439983 -16.245001
Cu 18.050005 12.635007 -16.245001
Cu 18.050005 14.439983 -18.050000
Cu -18.050000 16.244994 -16.245001
Cu -16.245001 16.244994 -18.050000
Cu -18.050000 18.050005 -18.050000
Cu -16.245001 18.050005 -16.245001
Cu -14.439982 16.244994 -16.245001
Cu -12.635007 16.244994 -18.050000
Cu -14.439982 18.050005 -18.050000
Cu -12.635007 18.050005 -16.245001
Cu -10.829996 16.244994 -16.245001
Cu -9.024984 16.244994 -18.050000
Cu -10.829996 18.050005 -18.050000
Cu -9.024984 18.050005 -16.245001
Cu -7.220009 16.244994 -16.245001
Cu -5.414998 16.244994 -18.050000
Cu -7.220009 18.050005 -18.050000
Cu -5.414998 18.050005 -16.245001
Cu -3.609987 16.244994 -16.245001
Cu -1.805011 16.244994 -18.050000
Cu -3.609987 18.050005 -18.050000
Cu -1.805011 18.050005 -16.245001
Cu 0.000000 16.244994 -16.245001
Cu 1.805011 16.244994 -18.050000
Cu 0.000000 18.050005 -18.050000
Cu 1.805011 18.050005 -16.245001
Cu 3.609987 16.244994 -16.245001
Cu 3.609987 18.050005 -18.050000
Cu 5.414998 16.244994 -18.050000
Cu 5.414998 18.050005 -16.245001
Cu 7.220009 16.244994 -16.245001
Cu 7.220009 18.050005 -18.050000
Cu 9.024985 16.244994 -18.050000
Cu 9.024985 18.050005 -16.245001
Cu 10.829996 16.244994 -16.245001
Cu 10.829996 18.050005 -18.050000
Cu 12.635007 16.244994 -18.050000
Cu 12.635007 18.050005 -16.245001
Cu 14.439983 16.244994 -16.245001
Cu 14.439983 18.050005 -18.050000
Cu 16.244994 16.244994 -18.050000
Cu 16.244994 18.050005 -16.245001
Cu 18.050005 16.244994 -16.245001
Cu 18.050005 18.050005 -18.050000
Cu -18.050000 -18.050000 -14.439982
Cu -18.050000 -16.245001 -12.635007
Cu -16.245001 -18.050000 -12.635007
Cu -16.245001 -16.245001 -14.439982
Cu -14.439982 -18.050000 -14.439982
Cu -14.439982 -16.245001 -12.635007
Cu -12.635007 -18.050000 -12.635007
Cu -12.635007 -16.245001 -14.439982
Cu -10.829996 -18.050000 -14.439982
Cu -10.829996 -16.245001 -12.635007
Cu -9.024984 -18.050000 -12.635007
Cu -9.024984 -16.245001 -14.439982
Cu -7.220009 -18.050000 -14.439982
Cu -7.220009 -16.245001 -12.635007
Cu -5.414998 -18.050000 -12.635007
Cu -5.414998 -16.245001 -14.439982
Cu -3.609987 -18.050000 -14.439982
Cu -3.609987 -16.245001 -12.635007
Cu -1.805011 -18.050000 -12.635007
Cu -1.805011 -16.245001 -14.439982
Cu 0.000000 -18.050000 -14.439982
Cu 0.000000 -16.245001 -12.635007
Cu 1.805011 -18.050000 -12.635007
Cu 1.805011 -16.245001 -14.439982
Cu 3.609987 -18.050000 -14.439982
Cu 3.609987 -16.245001 -12.635007
Cu 5.414998 -18.050000 -12.635007
Cu 5.414998 -16.245001 -14.439982
Cu 7.220009 -18.050000 -14.439982
Cu 7.220009 -16.245001 -12.635007
Cu 9.024985 -18.050000 -12.635007
Cu 9.024985 -16.245001 -14.439982
Cu 10.829996 -18.050000 -14.439982
Cu 10.829996 -16.245001 -12.635007
Cu 12.635007 -18.050000 -12.635007
Cu 12.635007 -16.245001 -14.439982
Cu 14.439983 -18.050000 -14.439982
Cu 14.439983 -16.245001 -12.635007
Cu 16.244994 -18.050000 -12.635007
Cu 16.244994 -16.245001 -14.439982
Cu 18.050005 -18.050000 -14.439982
Cu 18.050005 -16.245001 -12.635007
Cu -18.050000 -14.439982 -14.439982
Cu -18.050000 -12.635007 -12.635007
Cu -16.245001 -14.439982 -12.635007
Cu -16.245001 -12.635007 -14.439982
Cu -14.439982 -14.439982 -14.439982
Cu -14.439982 -12.635007 -12.635007
Cu -12.635007 -14.439982 -12.635007
Cu -12.635007 -12.635007 -14.439982
Cu -10.829996 -14.439982 -14.439982
Cu -10.829996 -12.635007 -12.635007
Cu -9.024984 -14.439982 -12.635007
Cu -9.024984 -12.635007 -14.439982
Cu -7.220009 -14.439982 -14.439982
Cu -7.220009 -12.635007 -12.635007
Cu -5.414998 -14.439982 -12.635007
Cu -5.414998 -12.635007 -14.439982
Cu -3.609987 -14.439982 -14.439982
Cu -3.609987 -12.635007 -12.635007
Cu -1.805011 -14.439982 -12.635007
Cu -1.805011 -12.635007 -14.439982
Cu 0.000000 -14.439982 -14.439982
Cu 0.000000 -12.635007 -12.635007
Cu 1.805011 -14.439982 -12.635007
Cu 1.805011 -12.635007 -14.439982
Cu 3.609987 -14.439982 -14.439982
Cu 3.609987 -12.635007 -12.635007
Cu 5.414998 -14.439982 -12.635007
Cu 5.414998 -12.635007 -14.439982
Cu 7.220009 -14.439982 -14.439982
Cu 7.220009 -12.635007 -12.635007
Cu 9.024985 -14.439982 -12.635007
Cu 9.024985 -12.635007 -14.439982
Cu 10.829996 -14.439982 -14.439982
Cu 10.829996 -12.635007 -12.635007
Cu 12.635007 -14.439982 -12.635007
Cu 12.635007 -12.635007 -14.439982
Cu 14.439983 -14.439982 -14.439982
Cu 14.439983 -12.635007 -12.635007
Cu 16.244994 -14.439982 -12.635007
Cu 16.244994 -12.635007 -14.439982
Cu 18.050005 -14.439982 -14.439982
Cu 18.050005 -12.635007 -12.635007
Cu -18.050000 -10.829996 -14.439982
Cu -18.050000 -9.024984 -12.635007
Cu -16.245001 -10.829996 -12.635007
Cu -16.245001 -9.024984 -14.439982
Cu -14.439982 -10.829996 -14.439982
Cu -14.439982 -9.024984 -12.635007
Cu -12.635007 -10.829996 -12.635007
Cu -12.635007 -9.024984 -14.439982
Cu -10.829996 -10.829996 -14.439982
Cu -10.829996 -9.024984 -12.635007
Cu -9.024984 -10.829996 -12.635007
Cu -9.024984 -9.024984 -14.439982
Cu -7.220009 -10.829996 -14.439982
Cu -7.220009 -9.024984 -12.635007
Cu -5.414998 -10.829996 -12.635007
Cu -5.414998 -9.024984 -14.439982
Cu -3.609987 -10.829996 -14.439982
Cu -3.609987 -9.024984 -12.635007
Cu -1.805011 -10.829996 -12.635007
Cu -1.805011 -9.024984 -14.439982
Cu 0.000000 -10.829996 -14.439982
Cu 0.000000 -9.024984 -12.635007
Cu 1.805011 -10.829996 -12.635007
Cu 1.805011 -9.024984 -14.439982
Cu 3.609987 -10.829996 -14.439982
Cu 3.609987 -9.024984 -12.635007
Cu 5.414998 -10.829996 -12.635007
Cu 5.414998 -9.024984 -14.439982
Cu 7.220009 -10.829996 -14.439982
Cu 7.220009 -9.024984 -12.635007
Cu 9.024985 -10.829996 -12.635007
Cu 9.024985 -9.024984 -14.439982
Cu 10.829996 -10.829996 -14.439982
Cu 10.829996 -9.024984 -12.635007
Cu 12.635007 -10.829996 -12.635007
Cu 12.635007 -9.024984 -14.439982
Cu 14.439983 -10.829996 -14.439982
Cu 14.439983 -9.024984 -12.635007
Cu 16.244994 -10.829996 -12.635007
Cu 16.244994 -9.024984 -14.439982
Cu 18.050005 -10.829996 -14.439982
Cu 18.050005 -9.024984 -12.635007
Cu -18.050000 -7.220009 -14.439982
Cu -18.050000 -5.414998 -12.635007
Cu -16.245001 -7.220009 -12.635007
Cu -16.245001 -5.414998 -14.439982
Cu -14.439982 -7.220009 -14.439982
Cu -14.439982 -5.414998 -12.635007
Cu -12.635007 -7.220009 -12.635007
Cu -12.635007 -5.414998 -14.439982
Cu -10.829996 -7.220009 -14.439982
Cu -10.829996 -5.414998 -12.635007
Cu -9.024984 -7.220009 -12.635007
Cu -9.024984 -5.414998 -14.439982
Cu -7.220009 -7.220009 -14.439982
Cu -7.220009 -5.414998 -12.635007
Cu -5.414998 -7.220009 -12.635007
Cu -5.414998 -5.414998 -14.439982
Cu -3.609987 -7.220009 -14.439982
Cu -3.609987 -5.414998 -12.635007
Cu -1.805011 -7.220009 -12.635007
Cu -1.805011 -5.414998 -14.439982
Cu 0.000000 -7.220009 -14.439982
Cu 0.000000 -5.414998 -12.635007
Cu 1.805011 -7.220009 -12.635007
Cu 1.805011 -5.414998 -14.439982
Cu 3.609987 -7.220009 -14.439982
Cu 3.609987 -5.414998 -12.635007
Cu 5.414998 -7.220009 -12.635007
Cu 5.414998 -5.414998 -14.439982
Cu 7.220009 -7.220009 -14.439982
Cu 7.220009 -5.414998 -12.635007
Cu 9.024985 -7.220009 -12.635007
Cu 9.024985 -5.414998 -14.439982
Cu 10.829996 -7.220009 -14.439982
Cu 10.829996 -5.414998 -12.635007
Cu 12.635007 -7.220009 -12.635007
Cu 12.635007 -5.414998 -14.439982
Cu 14.439983 -7.220009 -14.439982
Cu 14.439983 -5.414998 -12.635007
Cu 16.244994 -7.220009 -12.635007
Cu 16.244994 -5.414998 -14.439982
Cu 18.050005 -7.220009 -14.439982
Cu 18.050005 -5.414998 -12.635007
Cu -18.050000 -3.609987 -14.439982
Cu -18.050000 -1.805011 -12.635007
Cu -16.245001 -3.609987 -12.635007
Cu -16.245001 -1.805011 -14.439982
Cu -14.439982 -3.609987 -14.439982
Cu -14.439982 -1.805011 -12.635007
Cu -12.635007 -3.609987 -12.635007
Cu -12.635007 -1.805011 -14.439982
Cu -10.829996 -3.609987 -14.439982
Cu -10.829996 -1.805011 -12.635007
Cu -9.024984 -3.609987 -12.635007
Cu -9.024984 -1.805011 -14.439982
Cu -7.220009 -3.609987 -14.439982
Cu -7.220009 -1.805011 -12.635007
Cu -5.414998 -3.609987 -12.635007
Cu -5.414998 -1.805011 -14.439982
Cu -3.609987 -3.609987 -14.439982
Cu -3.609987 -1.805011 -12.635007
Cu -1.805011 -3.609987 -12.635007
Cu -1.805011 -1.805011 -14.439982
Cu 0.000000 -3.609987 -14.439982
Cu 0.000000 -1.805011 -12.635007
Cu 1.805011 -3.609987 -12.635007
Cu 1.805011 -1.805011 -14.439982
Cu 3.609987 -3.609987 -14.439982
Cu 3.609987 -1.805011 -12.635007
Cu 5.414998 -3.609987 -12.635007
Cu 5.414998 -1.805011 -14.439982
Cu 7.220009 -3.609987 -14.439982
Cu 7.220009 -1.805011 -12.635007
Cu 9.024985 -3.609987 -12.635007
Cu 9.024985 -1.805011 -14.439982
Cu 10.829996 -3.609987 -14.439982
Cu 10.829996 -1.805011 -12.635007
Cu 12.635007 -3.609987 -12.635007
Cu 12.635007 -1.805011 -14.439982
Cu 14.439983 -3.609987 -14.439982
Cu 14.439983 -1.805011 -12.635007
Cu 16.244994 -3.609987 -12.635007
Cu 16.244994 -1.805011 -14.439982
Cu 18.050005 -3.609987 -14.439982
Cu 18.050005 -1.805011 -12.635007
Cu -18.050000 0.000000 -14.439982
Cu -18.050000 1.805011 -12.635007
Cu -16.245001 0.000000 -12.635007
Cu -16.245001 1.805011 -14.439982
Cu -18.050000 3.609987 -14.439982
Cu -16.245001 3.609987 -12.635007
Cu -14.439982 0.000000 -14.439982
Cu -14.439982 1.805011 -12.635007
Cu -12.635007 0.000000 -12.635007
Cu -12.635007 1.805011 -14.439982
Cu -14.439982 3.609987 -14.439982
Cu -12.635007 3.609987 -12.635007
Cu -10.829996 0.000000 -14.439982
Cu -10.829996 1.805011 -12.635007
Cu -9.024984 0.000000 -12.635007
Cu -9.024984 1.805011 -14.439982
Cu -10.829996 3.609987 -14.439982
Cu -9.024984 3.609987 -12.635007
Cu -7.220009 0.000000 -14.439982
Cu -7.220009 1.805011 -12.635007
Cu -5.414998 0.000000 -12.635007
Cu -5.414998 1.805011 -14.439982
Cu -7.220009 3.609987 -14.439982
Cu -5.414998 3.609987 -12.635007
Cu -3.609987 0.000000 -14.439982
Cu -3.609987 1.805011 -12.635007
Cu -1.805011 0.000000 -12.635007
Cu -1.805011 1.805011 -14.439982
Cu -3.609987 3.609987 -14.439982
Cu -1.805011 3.609987 -12.635007
Cu 0.000000 0.000000 -14.439982
Cu 0.000000 1.805011 -12.635007
Cu 1.805011 0.000000 -12.635007
Cu 1.805011 1.805011 -14.439982
Cu 0.000000 3.609987 -14.439982
Cu 1.805011 3.609987 -12.635007
Cu 3.609987 0.000000 -14.439982
Cu 3.609987 1.805011 -12.635007
Cu 3.609987 3.609987 -14.439982
Cu 5.414998 0.000000 -12.635007
Cu 5.414998 1.805011 -14.439982
Cu 5.414998 3.609987 -12.635007
Cu 7.220009 0.000000 -14.439982
Cu 7.220009 1.805011 -12.635007
Cu 7.220009 3.609987 -14.439982
Cu 9.024985 0.000000 -12.635007
Cu 9.024985 1.805011 -14.439982
Cu 9.024985 3.609987 -12.635007
Cu 10.829996 0.000000 -14.439982
Cu 10.829996 1.805011 -12.635007
Cu 10.829996 3.609987 -14.439982
Cu 12.635007 0.000000 -12.635007
Cu 12.635007 1.805011 -14.439982
Cu 12.635007 3.609987 -12.635007
Cu 14.439983 0.000000 -14.439982
Cu 14.439983 1.805011 -12.635007
Cu 14.439983 3.609987 -14.439982
Cu 16.244994 0.000000 -12.635007
Cu 16.244994 1.805011 -14.439982
Cu 16.244994 3.609987 -12.635007
Cu 18.050005 0.000000 -14.439982
Cu 18.050005 1.805011 -12.635007
Cu 18.050005 3.609987 -14.439982
Cu -18.050000 5.414998 -12.635007
Cu -16.245001 5.414998 -14.439982
Cu -18.050000 7.220009 -14.439982
Cu -16.245001 7.220009 -12.635007
Cu -14.439982 5.414998 -12.635007
Cu -12.635007 5.414998 -14.439982
Cu -14.439982 7.220009 -14.439982
Cu -12.635007 7.220009 -12.635007
Cu -10.829996 5.414998 -12.635007
Cu -9.024984 5.414998 -14.439982
Cu -10.829996 7.220009 -14.439982
Cu -9.024984 7.220009 -12.635007
Cu -7.220009 5.414998 -12.635007
Cu -5.414998 5.414998 -14.439982
Cu -7.220009 7.220009 -14.439982
Cu -5.414998 7.220009 -12.635007
Cu -3.609987 5.414998 -12.635007
Cu -1.805011 5.414998 -14.439982
Cu -3.609987 7.220009 -14.439982
Cu -1.805011 7.220009 -12.635007
Cu 0.000000 5.414998 -12.635007
Cu 1.805011 5.414998 -14.439982
Cu 0.000000 7.220009 -14.439982
Cu 1.805011 7.220009 -12.635007
Cu 3.609987 5.414998 -12.635007
Cu 3.609987 7.220009 -14.439982
Cu 5.414998 5.414998 -14.439982
Cu 5.414998 7.220009 -12.635007
Cu 7.220009 5.414998 -12.635007
Cu 7.220009 7.220009 -14.439982
Cu 9.024985 5.414998 -14.439982
Cu 9.024985 7.220009 -12.635007
Cu 10.829996 5.414998 -12.635007
Cu 10.829996 7.220009 -14.439982
Cu 12.635007 5.414998 -14.439982
Cu 12.635007 7.220009 -12.635007
Cu 14.439983 5.414998 -12.635007
Cu 14.439983 7.220009 -14.439982
Cu 16.244994 5.414998 -14.439982
Cu 16.244994 7.220009 -12.635007
Cu 18.050005 5.414998 -12.635007
Cu 18.050005 7.220009 -14.439982
Cu -18.050000 9.024985 -12.635007
Cu -16.245001 9.024985 -14.439982
Cu -18.050000 10.829996 -14.439982
Cu -16.245001 10.829996 -12.635007
Cu -14.439982 9.024985 -12.635007
Cu -12.635007 9.024985 -14.439982
Cu -14.439982 10.829996 -14.439982
Cu -12.635007 10.829996 -12.635007
Cu -10.829996 9.024985 -12.635007
Cu -9.024984 9.024985 -14.439982
Cu -10.829996 10.829996 -14.439982
Cu -9.024984 10.829996 -12.635007
Cu -7.220009 9.024985 -12.635007
Cu -5.414998 9.024985 -14.439982
Cu -7.220009 10.829996 -14.439982
Cu -5.414998 10.829996 -12.635007
Cu -3.609987 9.024985 -12.635007
Cu -1.805011 9.024985 -14.439982
Cu -3.609987 10.829996 -14.439982
Cu -1.805011 10.829996 -12.635007
Cu 0.000000 9.024985 -12.635007
Cu 1.805011 9.024985 -14.439982
Cu 0.000000 10.829996 -14.439982
Cu 1.805011 10.829996 -12.635007
Cu 3.609987 9.024985 -12.635007
Cu 3.609987 10.829996 -14.439982
Cu 5.414998 9.024985 -14.439982
Cu 5.414998 10.829996 -12.635007
Cu 7.220009 9.024985 -12.635007
Cu 7.220009 10.829996 -14.439982
Cu 9.024985 9.024985 -14.439982
Cu 9.024985 10.829996 -12.635007
Cu 10.829996 9.024985 -12.635007
Cu 10.829996 10.829996 -14.439982
Cu 12.635007 9.024985 -14.439982
Cu 12.635007 10.829996 -12.635007
Cu 14.439983 9.024985 -12.635007
Cu 14.439983 10.829996 -14.439982
Cu 16.244994 9.024985 -14.439982
Cu 16.244994 10.829996 -12.635007
Cu 18.050005 9.024985 -12.635007
Cu 18.050005 10.829996 -14.439982
Cu -18.050000 12.635007 -12.635007
Cu -16.245001 12.635007 -14.439982
Cu -18.050000 14.439983 -14.439982
Cu -16.245001 14.439983 -12.635007
Cu -14.439982 12.635007 -12.635007
Cu -12.635007 12.635007 -14.439982
Cu -14.439982 14.439983 -14.439982
Cu -12.635007 14.439983 -12.635007
Cu -10.829996 12.635007 -12.635007
Cu -9.024984 12.635007 -14.439982
Cu -10.829996 14.439983 -14.439982
Cu -9.024984 14.439983 -12.635007
Cu -7.220009 12.635007 -12.635007
Cu -5.414998 12.635007 -14.439982
Cu -7.220009 14.439983 -14.439982
Cu -5.414998 14.439983 -12.635007
Cu -3.609987 12.635007 -12.635007
Cu -1.805011 12.635007 -14.439982
Cu -3.609987 14.439983 -14.439982
Cu -1.805011 14.439983 -12.635007
Cu 0.000000 12.635007 -12.635007
Cu 1.805011 12.635007 -14.439982
Cu 0.000000 14.439983 -14.439982
Cu 1.805011 14.439983 -12.635007
Cu 3.609987 12.635007 -12.635007
Cu 3.609987 14.439983 -14.439982
Cu 5.414998 12.635007 -14.439982
Cu 5.414998 14.439983 -12.635007
Cu 7.220009 12.635007 -12.635007
Cu 7.220009 14.439983 -14.439982
Cu 9.024985 12.635007 -14.439982
Cu 9.024985 14.439983 -12.635007
Cu 10.829996 12.635007 -12.635007
Cu 10.829996 14.439983 -14.439982
Cu 12.635007 12.635007 -14.439982
Cu 12.635007 14.439983 -12.635007
Cu 14.439983 12.635007 -12.635007
Cu 14.439983 14.439983 -14.439982
Cu 16.244994 12.635007 -14.439982
Cu 16.244994 14.439983 -12.635007
Cu 18.050005 12.635007 -12.635007
Cu 18.050005 14.439983 -14.439982
Cu -18.050000 16.244994 -12.635007
Cu -16.245001 16.244994 -14.439982
Cu -18.050000 18.050005 -14.439982
Cu -16.245001 18.050005 -12.635007
Cu -14.439982 16.244994 -12.635007
Cu -12.635007 16.244994 -14.439982
Cu -14.439982 18.050005 -14.439982
Cu -12.635007 18.050005 -12.635007
Cu -10.829996 16.244994 -12.635007
Cu -9.024984 16.244994 -14.439982
Cu -10.829996 18.050005 -14.439982
Cu -9.024984 18.050005 -12.635007
Cu -7.220009 16.244994 -12.635007
Cu -5.414998 16.244994 -14.439982
Cu -7.220009 18.050005 -14.439982
Cu -5.414998 18.050005 -12.635007
Cu -3.609987 16.244994 -12.635007
Cu -1.805011 16.244994 -14.439982
Cu -3.609987 18.050005 -14.439982
Cu -1.805011 18.050005 -12.635007
Cu 0.000000 16.244994 -12.635007
Cu 1.805011 16.244994 -14.439982
Cu 0.000000 18.050005 -14.439982
Cu 1.805011 18.050005 -12.635007
Cu 3.609987 16.244994 -12.635007
Cu 3.609987 18.050005 -14.439982
Cu 5.414998 16.244994 -14.439982
Cu 5.414998 18.050005 -12.635007
Cu 7.220009 16.244994 -12.635007
Cu 7.220009 18.050005 -14.439982
Cu 9.024985 16.244994 -14.439982
Cu 9.024985 18.050005 -12.635007
Cu 10.829996 16.244994 -12.635007
Cu 10.829996 18.050005 -14.439982
Cu 12.635007 16.244994 -14.439982
Cu 12.635007 18.050005 -12.635007
Cu 14.439983 16.244994 -12.635007
Cu 14.439983 18.050005 -14.439982
Cu 16.244994 16.244994 -14.439982
Cu 16.244994 18.050005 -12.635007
Cu 18.050005 16.244994 -12.635007
Cu 18.050005 18.050005 -14.439982
Cu -18.050000 -18.050000 -10.829996
Cu -18.050000 -16.245001 -9.024984
Cu -16.245001 -18.050000 -9.024984
Cu -16.245001 -16.245001 -10.829996
Cu -14.439982 -18.050000 -10.829996
Cu -14.439982 -16.245001 -9.024984
Cu -12.635007 -18.050000 -9.024984
Cu -12.635007 -16.245001 -10.829996
Cu -10.829996 -18.050000 -10.829996
Cu -10.829996 -16.245001 -9.024984
Cu -9.024984 -18.050000 -9.024984
Cu -9.024984 -16.245001 -10.829996
Cu -7.220009 -18.050000 -10.829996
Cu -7.220009 -16.245001 -9.024984
Cu -5.414998 -18.050000 -9.024984
Cu -5.414998 -16.245001 -10.829996
Cu -3.609987 -18.050000 -10.829996
Cu -3.609987 -16.245001 -9.024984
Cu -1.805011 -18.050000 -9.024984
Cu -1.805011 -16.245001 -10.829996
Cu 0.000000 -18.050000 -10.829996
Cu 0.000000 -16.245001 -9.024984
Cu 1.805011 -18.050000 -9.024984
Cu 1.805011 -16.245001 -10.829996
Cu 3.609987 -18.050000 -10.829996
Cu 3.609987 -16.245001 -9.024984
Cu 5.414998 -18.050000 -9.024984
Cu 5.414998 -16.245001 -10.829996
Cu 7.220009 -18.050000 -10.829996
Cu 7.220009 -16.245001 -9.024984
Cu 9.024985 -18.050000 -9.024984
Cu 9.024985 -16.245001 -10.829996
Cu 10.829996 -18.050000 -10.829996
Cu 10.829996 -16.245001 -9.024984
Cu 12.635007 -18.050000 -9.024984
Cu 12.635007 -16.245001 -10.829996
Cu 14.439983 -18.050000 -10.829996
Cu 14.439983 -16.245001 -9.024984
Cu 16.244994 -18.050000 -9.024984
Cu 16.244994 -16.245001 -10.829996
Cu 18.050005 -18.050000 -10.829996
Cu 18.050005 -16.245001 -9.024984
Cu -18.050000 -14.439982 -10.829996
Cu -18.050000 -12.635007 -9.024984
Cu -16.245001 -14.439982 -9.024984
Cu -16.245001 -12.635007 -10.829996
Cu -14.439982 -14.439982 -10.829996
Cu -14.439982 -12.635007 -9.024984
Cu -12.635007 -14.439982 -9.024984
Cu -12.635007 -12.635007 -10.829996
Cu -10.829996 -14.439982 -10.829996
Cu -10.829996 -12.635007 -9.024984
Cu -9.024984 -14.439982 -9.024984
Cu -9.024984 -12.635007 -10.829996
Cu -7.220009 -14.439982 -10.829996
Cu -7.220009 -12.635007 -9.024984
Cu -5.414998 -14.439982 -9.024984
Cu -5.414998 -12.635007 -10.829996
Cu -3.609987 -14.439982 -10.829996
Cu -3.609987 -12.635007 -9.024984
Cu -1.805011 -14.439982 -9.024984
Cu -1.805011 -12.635007 -10.829996
Cu 0.000000 -14.439982 -10.829996
Cu 0.000000 -12.635007 -9.024984
Cu 1.805011 -14.439982 -9.024984
Cu 1.805011 -12.635007 -10.829996
Cu 3.609987 -14.439982 -10.829996
Cu 3.609987 -12.635007 -9.024984
Cu 5.414998 -14.439982 -9.024984
Cu 5.414998 -12.635007 -10.829996
Cu 7.220009 -14.439982 -10.829996
Cu 7.220009 -12.635007 -9.024984
Cu 9.024985 -14.439982 -9.024984
Cu 9.024985 -12.635007 -10.829996
Cu 10.829996 -14.439982 -10.829996
Cu 10.829996 -12.635007 -9.024984
Cu 12.635007 -14.439982 -9.024984
Cu 12.635007 -12.635007 -10.829996
Cu 14.439983 -14.439982 -10.829996
Cu 14.439983 -12.635007 -9.024984
Cu 16.244994 -14.439982 -9.024984
Cu 16.244994 -12.635007 -10.829996
Cu 18.050005 -14.439982 -10.829996
Cu 18.050005 -12.635007 -9.024984
Cu -18.050000 -10.829996 -10.829996
Cu -18.050000 -9.024984 -9.024984
Cu -16.245001 -10.829996 -9.024984
Cu -16.245001 -9.024984 -10.829996
Cu -14.439982 -10.829996 -10.829996
Cu -14.439982 -9.024984 -9.024984
Cu -12.635007 -10.829996 -9.024984
Cu -12.635007 -9.024984 -10.829996
Cu -10.829996 -10.829996 -10.829996
Cu -10.829996 -9.024984 -9.024984
Cu -9.024984 -10.829996 -9.024984
Cu -9.024984 -9.024984 -10.829996
Cu -7.220009 -10.829996 -10.829996
Cu -7.220009 -9.024984 -9.024984
Cu -5.414998 -10.829996 -9.024984
Cu -5.414998 -9.024984 -10.829996
Cu -3.609987 -10.829996 -10.829996
Cu -3.609987 -9.024984 -9.024984
Cu -1.805011 -10.829996 -9.024984
Cu -1.805011 -9.024984 -10.829996
Cu 0.000000 -10.829996 -10.829996
Cu 0.000000 -9.024984 -9.024984
Cu 1.805011 -10.829996 -9.024984
Cu 1.805011 -9.024984 -10.829996
Cu 3.609987 -10.829996 -10.829996
Cu 3.609987 -9.024984 -9.024984
Cu 5.414998 -10.829996 -9.024984
Cu 5.414998 -9.024984 -10.829996
Cu 7.220009 -10.829996 -10.829996
Cu 7.220009 -9.024984 -9.024984
Cu 9.024985 -10.829996 -9.024984
Cu 9.024985 -9.024984 -10.829996
Cu 10.829996 -10.829996 -10.829996
Cu 10.829996 -9.024984 -9.024984
Cu 12.635007 -10.829996 -9.024984
Cu 12.635007 -9.024984 -10.829996
Cu 14.439983 -10.829996 -10.829996
Cu 14.439983 -9.024984 -9.024984
Cu 16.244994 -10.829996 -9.024984
Cu 16.244994 -9.024984 -10.829996
Cu 18.050005 -10.829996 -10.829996
Cu 18.050005 -9.024984 -9.024984
Cu -18.050000 -7.220009 -10.829996
Cu -18.050000 -5.414998 -9.024984
Cu -16.245001 -7.220009 -9.024984
Cu -16.245001 -5.414998 -10.829996
Cu -14.439982 -7.220009 -10.829996
Cu -14.439982 -5.414998 -9.024984
Cu -12.635007 -7.220009 -9.024984
Cu -12.635007 -5.414998 -10.829996
Cu -10.829996 -7.220009 -10.829996
Cu -10.829996 -5.414998 -9.024984
Cu -9.024984 -7.220009 -9.024984
Cu -9.024984 -5.414998 -10.829996
Cu -7.220009 -7.220009 -10.829996
Cu -7.220009 -5.414998 -9.024984
Cu -5.414998 -7.220009 -9.024984
Cu -5.414998 -5.414998 -10.829996
Cu -3.609987 -7.220009 -10.829996
Cu -3.609987 -5.414998 -9.024984
Cu -1.805011 -7.220009 -9.024984
Cu -1.805011 -5.414998 -10.829996
Cu 0.000000 -7.220009 -10.829996
Cu 0.000000 -5.414998 -9.024984
Cu 1.805011 -7.220009 -9.024984
Cu 1.805011 -5.414998 -10.829996
Cu 3.609987 -7.220009 -10.829996
Cu 3.609987 -5.414998 -9.024984
Cu 5.414998 -7.220009 -9.024984
Cu 5.414998 -5.414998 -10.829996
Cu 7.220009 -7.220009 -10.829996
Cu 7.220009 -5.414998 -9.024984
Cu 9.024985 -7.220009 -9.024984
Cu 9.024985 -5.414998 -10.829996
Cu 10.829996 -7.220009 -10.829996
Cu 10.829996 -5.414998 -9.024984
Cu 12.635007 -7.220009 -9.024984
Cu 12.635007 -5.414998 -10.829996
Cu 14.439983 -7.220009 -10.829996
Cu 14.439983 -5.414998 -9.024984
Cu 16.244994 -7.220009 -9.024984
Cu 16.244994 -5.414998 -10.829996
Cu 18.050005 -7.220009 -10.829996
Cu 18.050005 -5.414998 -9.024984
Cu -18.050000 -3.609987 -10.829996
Cu -18.050000 -1.805011 -9.024984
Cu -16.245001 -3.609987 -9.024984
Cu -16.245001 -1.805011 -10.829996
Cu -14.439982 -3.609987 -10.829996
Cu -14.439982 -1.805011 -9.024984
Cu -12.635007 -3.609987 -9.024984
Cu -12.635007 -1.805011 -10.829996
Cu -10.829996 -3.609987 -10.829996
Cu -10.829996 -1.805011 -9.024984
Cu -9.024984 -3.609987 -9.024984
Cu -9.024984 -1.805011 -10.829996
Cu -7.220009 -3.609987 -10.829996
Cu -7.220009 -1.805011 -9.024984
Cu -5.414998 -3.609987 -9.024984
Cu -5.414998 -1.805011 -10.829996
Cu -3.609987 -3.609987 -10.829996
Cu -3.609987 -1.805011 -9.024984
Cu -1.805011 -3.609987 -9.024984
Cu -1.805011 -1.805011 -10.829996
Cu 0.000000 -3.609987 -10.829996
Cu 0.000000 -1.805011 -9.024984
Cu 1.805011 -3.609987 -9.024984
Cu 1.805011 -1.805011 -10.829996
Cu 3.609987 -3.609987 -10.829996
Cu 3.609987 -1.805011 -9.024984
Cu 5.414998 -3.609987 -9.024984
Cu 5.414998 -1.805011 -10.829996
Cu 7.220009 -3.609987 -10.829996
Cu 7.220009 -1.805011 -9.024984
Cu 9.024985 -3.609987 -9.024984
Cu 9.024985 -1.805011 -10.829996
Cu 10.829996 -3.609987 -10.829996
Cu 10.829996 -1.805011 -9.024984
Cu 12.635007 -3.609987 -9.024984
Cu 12.635007 -1.805011 -10.829996
Cu 14.439983 -3.609987 -10.829996
Cu 14.439983 -1.805011 -9.024984
Cu 16.244994 -3.609987 -9.024984
Cu 16.244994 -1.805011 -10.829996
Cu 18.050005 -3.609987 -10.829996
Cu 18.050005 -1.805011 -9.024984
Cu -18.050000 0.000000 -10.829996
Cu -18.050000 1.805011 -9.024984
Cu -16.245001 0.000000 -9.024984
Cu -16.245001 1.805011 -10.829996
Cu -18.050000 3.609987 -10.829996
Cu -16.245001 3.609987 -9.024984
Cu -14.439982 0.000000 -10.829996
Cu -14.439982 1.805011 -9.024984
Cu -12.635007 0.000000 -9.024984
Cu -12.635007 1.805011 -10.829996
Cu -14.439982 3.609987 -10.829996
Cu -12.635007 3.609987 -9.024984
Cu -10.829996 0.000000 -10.829996
Cu -10.829996 1.805011 -9.024984
Cu -9.024984 0.000000 -9.024984
Cu -9.024984 1.805011 -10.829996
Cu -10.829996 3.609987 -10.829996
Cu -9.024984 3.609987 -9.024984
Cu -7.220009 0.000000 -10.829996
Cu -7.220009 1.805011 -9.024984
Cu -5.414998 0.000000 -9.024984
Cu -5.414998 1.805011 -10.829996
Cu -7.220009 3.609987 -10.829996
Cu -5.414998 3.609987 -9.024984
Cu -3.609987 0.000000 -10.829996
Cu -3.609987 1.805011 -9.024984
Cu -1.805011 0.000000 -9.024984
Cu -1.805011 1.805011 -10.829996
Cu -3.609987 3.609987 -10.829996
Cu -1.805011 3.609987 -9.024984
Cu 0.000000 0.000000 -10.829996
Cu 0.000000 1.805011 -9.024984
Cu 1.805011 0.000000 -9.024984
Cu 1.805011 1.805011 -10.829996
Cu 0.000000 3.609987 -10.829996
Cu 1.805011 3.609987 -9.024984
Cu 3.609987 0.000000 -10.829996
Cu 3.609987 1.805011 -9.024984
Cu 3.609987 3.609987 -10.829996
Cu 5.414998 0.000000 -9.024984
Cu 5.414998 1.805011 -10.829996
Cu 5.414998 3.609987 -9.024984
Cu 7.220009 0.000000 -10.829996
Cu 7.220009 1.805011 -9.024984
Cu 7.220009 3.609987 -10.829996
Cu 9.024985 0.000000 -9.024984
Cu 9.024985 1.805011 -10.829996
Cu 9.024985 3.609987 -9.024984
Cu 10.829996 0.000000 -10.829996
Cu 10.829996 1.805011 -9.024984
Cu 10.829996 3.609987 -10.829996
Cu 12.635007 0.000000 -9.024984
Cu 12.635007 1.805011 -10.829996
Cu 12.635007 3.609987 -9.024984
Cu 14.439983 0.000000 -10.829996
Cu 14.439983 1.805011 -9.024984
Cu 14.439983 3.609987 -10.829996
Cu 16.244994 0.000000 -9.024984
Cu 16.244994 1.805011 -10.829996
Cu 16.244994 3.609987 -9.024984
Cu 18.050005 0.000000 -10.829996
Cu 18.050005 1.805011 -9.024984
Cu 18.050005 3.609987 -10.829996
Cu -18.050000 5.414998 -9.024984
Cu -16.245001 5.414998 -10.829996
Cu -18.050000 7.220009 -10.829996
Cu -16.245001 7.220009 -9.024984
Cu -14.439982 5.414998 -9.024984
Cu -12.635007 5.414998 -10.829996
Cu -14.439982 7.220009 -10.829996
Cu -12.635007 7.220009 -9.024984
Cu -10.829996 5.414998 -9.024984
Cu -9.024984 5.414998 -10.829996
Cu -10.829996 7.220009 -10.829996
Cu -9.024984 7.220009 -9.024984
Cu -7.220009 5.414998 -9.024984
Cu -5.414998 5.414998 -10.829996
Cu -7.220009 7.220009 -10.829996
Cu -5.414998 7.220009 -9.024984
Cu -3.609987 5.414998 -9.024984
Cu -1.805011 5.414998 -10.829996
Cu -3.609987 7.220009 -10.829996
Cu -1.805011 7.220009 -9.024984
Cu 0.000000 5.414998 -9.024984
Cu 1.805011 5.414998 -10.829996
Cu 0.000000 7.220009 -10.829996
Cu 1.805011 7.220009 -9.024984
Cu 3.609987 5.414998 -9.024984
Cu 3.609987 7.220009 -10.829996
Cu 5.414998 5.414998 -10.829996
Cu 5.414998 7.220009 -9.024984
Cu 7.220009 5.414998 -9.024984
Cu 7.220009 7.220009 -10.829996
Cu 9.024985 5.414998 -10.829996
Cu 9.024985 7.220009 -9.024984
Cu 10.829996 5.414998 -9.024984
Cu 10.829996 7.220009 -10.829996
Cu 12.635007 5.414998 -10.829996
Cu 12.635007 7.220009 -9.024984
Cu 14.439983 5.414998 -9.024984
Cu 14.439983 7.220009 -10.829996
Cu 16.244994 5.414998 -10.829996
Cu 16.244994 7.220009 -9.024984
Cu 18.050005 5.414998 -9.024984
Cu 18.050005 7.220009 -10.829996
Cu -18.050000 9.024985 -9.024984
Cu -16.245001 9.024985 -10.829996
Cu -18.050000 10.829996 -10.829996
Cu -16.245001 10.829996 -9.024984
Cu -14.439982 9.024985 -9.024984
Cu -12.635007 9.024985 -10.829996
Cu -14.439982 10.829996 -10.829996
Cu -12.635007 10.829996 -9.024984
Cu -10.829996 9.024985 -9.024984
Cu -9.024984 9.024985 -10.829996
Cu -10.829996 10.829996 -10.829996
Cu -9.024984 10.829996 -9.024984
Cu -7.220009 9.024985 -9.024984
Cu -5.414998 9.024985 -10.829996
Cu -7.220009 10.829996 -10.829996
Cu -5.414998 10.829996 -9.024984
Cu -3.609987 9.024985 -9.024984
Cu -1.805011 9.024985 -10.829996
Cu -3.609987 10.829996 -10.829996
Cu -1.805011 10.829996 -9.024984
Cu 0.000000 9.024985 -9.024984
Cu 1.805011 9.024985 -10.829996
Cu 0.000000 10.829996 -10.829996
Cu 1.805011 10.829996 -9.024984
Cu 3.609987 9.024985 -9.024984
Cu 3.609987 10.829996 -10.829996
Cu 5.414998 9.024985 -10.829996
Cu 5.414998 10.829996 -9.024984
Cu 7.220009 9.024985 -9.024984
Cu 7.220009 10.829996 -10.829996
Cu 9.024985 9.024985 -10.829996
Cu 9.024985 10.829996 -9.024984
Cu 10.829996 9.024985 -9.024984
Cu 10.829996 10.829996 -10.829996
Cu 12.635007 9.024985 -10.829996
Cu 12.635007 10.829996 -9.024984
Cu 14.439983 9.024985 -9.024984
Cu 14.439983 10.829996 -10.829996
Cu 16.244994 9.024985 -10.829996
Cu 16.244994 10.829996 -9.024984
Cu 18.050005 9.024985 -9.024984
Cu 18.050005 10.829996 -10.829996
Cu -18.050000 12.635007 -9.024984
Cu -16.245001 12.635007 -10.829996
Cu -18.050000 14.439983 -10.829996
Cu -16.245001 14.439983 -9.024984
Cu -14.439982 12.635007 -9.024984
Cu -12.635007 12.635007 -10.829996
Cu -14.439982 14.439983 -10.829996
Cu -12.635007 14.439983 -9.024984
Cu -10.829996 12.635007 -9.024984
Cu -9.024984 12.635007 -10.829996
Cu -10.829996 14.439983 -10.829996
Cu -9.024984 14.439983 -9.024984
Cu -7.220009 12.635007 -9.024984
Cu -5.414998 12.635007 -10.829996
Cu -7.220009 14.439983 -10.829996
Cu -5.414998 14.439983 -9.024984
Cu -3.609987 12.635007 -9.024984
Cu -1.805011 12.635007 -10.829996
Cu -3.609987 14.439983 -10.829996
Cu -1.805011 14.439983 -9.024984
Cu 0.000000 12.635007 -9.024984
Cu 1.805011 12.635007 -10.829996
Cu 0.000000 14.439983 -10.829996
Cu 1.805011 14.439983 -9.024984
Cu 3.609987 12.635007 -9.024984
Cu 3.609987 14.439983 -10.829996
Cu 5.414998 12.635007 -10.829996
Cu 5.414998 14.439983 -9.024984
Cu 7.220009 12.635007 -9.024984
Cu 7.220009 14.439983 -10.829996
Cu 9.024985 12.635007 -10.829996
Cu 9.024985 14.439983 -9.024984
Cu 10.829996 12.635007 -9.024984
Cu 10.829996 14.439983 -10.829996
Cu 12.635007 12.635007 -10.829996
Cu 12.635007 14.439983 -9.024984
Cu 14.439983 12.635007 -9.024984
Cu 14.439983 14.439983 -10.829996
Cu 16.244994 12.635007 -10.829996
Cu 16.244994 14.439983 -9.024984
Cu 18.050005 12.635007 -9.024984
Cu 18.050005 14.439983 -10.829996
Cu -18.050000 16.244994 -9.024984
Cu -16.245001 16.244994 -10.829996
Cu -18.050000 18.050005 -10.829996
Cu -16.245001 18.050005 -9.024984
Cu -14.439982 16.244994 -9.024984
Cu -12.635007 16.244994 -10.829996
Cu -14.439982 18.050005 -10.829996
Cu -12.635007 18.050005 -9.024984
Cu -10.829996 16.244994 -9.024984
Cu -9.024984 16.244994 -10.829996
Cu -10.829996 18.050005 -10.829996
Cu -9.024984 18.050005 -9.024984
Cu -7.220009 16.244994 -9.024984
Cu -5.414998 16.244994 -10.829996
Cu -7.220009 18.050005 -10.829996
Cu -5.414998 18.050005 -9.024984
Cu -3.609987 16.244994 -9.024984
Cu -1.805011 16.244994 -10.829996
Cu -3.609987 18.050005 -10.829996
Cu -1.805011 18.050005 -9.024984
Cu 0.000000 16.244994 -9.024984
Cu 1.805011 16.244994 -10.829996
Cu 0.000000 18.050005 -10.829996
Cu 1.805011 18.050005 -9.024984
Cu 3.609987 16.244994 -9.024984
Cu 3.609987 18.050005 -10.829996
Cu 5.414998 16.244994 -10.829996
Cu 5.414998 18.050005 -9.024984
Cu 7.220009 16.244994 -9.024984
Cu 7.220009 18.050005 -10.829996
Cu 9.024985 16.244994 -10.829996
Cu 9.024985 18.050005 -9.024984
Cu 10.829996 16.244994 -9.024984
Cu 10.829996 18.050005 -10.829996
Cu 12.635007 16.244994 -10.829996
Cu 12.635007 18.050005 -9.024984
Cu 14.439983 16.244994 -9.024984
Cu 14.439983 18.050005 -10.829996
Cu 16.244994 16.244994 -10.829996
Cu 16.244994 18.050005 -9.024984
Cu 18.050005 16.244994 -9.024984
Cu 18.050005 18.050005 -10.829996
Cu -18.050000 -18.050000 -7.220009
Cu -18.050000 -16.245001 -5.414998
Cu -16.245001 -18.050000 -5.414998
Cu -16.245001 -16.245001 -7.220009
Cu -14.439982 -18.050000 -7.220009
Cu -14.439982 -16.245001 -5.414998
Cu -12.635007 -18.050000 -5.414998
Cu -12.635007 -16.245001 -7.220009
Cu -10.829996 -18.050000 -7.220009
Cu -10.829996 -16.245001 -5.414998
Cu -9.024984 -18.050000 -5.414998
Cu -9.024984 -16.245001 -7.220009
Cu -7.220009 -18.050000 -7.220009
Cu -7.220009 -16.245001 -5.414998
Cu -5.414998 -18.050000 -5.414998
Cu -5.414998 -16.245001 -7.220009
Cu -3.609987 -18.050000 -7.220009
Cu -3.609987 -16.245001 -5.414998
Cu -1.805011 -18.050000 -5.414998
Cu -1.805011 -16.245001 -7.220009
Cu 0.000000 -18.050000 -7.220009
Cu 0.000000 -16.245001 -5.414998
Cu 1.805011 -18.050000 -5.414998
Cu 1.805011 -16.245001 -7.220009
Cu 3.609987 -18.050000 -7.220009
Cu 3.609987 -16.245001 -5.414998
Cu 5.414998 -18.050000 -5.414998
Cu 5.414998 -16.245001 -7.220009
Cu 7.220009 -18.050000 -7.220009
Cu 7.220009 -16.245001 -5.414998
Cu 9.024985 -18.050000 -5.414998
Cu 9.024985 -16.245001 -7.220009
Cu 10.829996 -18.050000 -7.220009
Cu 10.829996 -16.245001 -5.414998
Cu 12.635007 -18.050000 -5.414998
Cu 12.635007 -16.245001 -7.220009
Cu 14.439983 -18.050000 -7.220009
Cu 14.439983 -16.245001 -5.414998
Cu 16.244994 -18.050000 -5.414998
Cu 16.244994 -16.245001 -7.220009
Cu 18.050005 -18.050000 -7.220009
Cu 18.050005 -16.245001 -5.414998
Cu -18.050000 -14.439982 -7.220009
Cu -18.050000 -12.635007 -5.414998
Cu -16.245001 -14.439982 -5.414998
Cu -16.245001 -12.635007 -7.220009
Cu -14.439982 -14.439982 -7.220009
Cu -14.439982 -12.635007 -5.414998
Cu -12.635007 -14.439982 -5.414998
Cu -12.635007 -12.635007 -7.220009
Cu -10.829996 -14.439982 -7.220009
Cu -10.829996 -12.635007 -5.414998
Cu -9.024984 -14.439982 -5.414998
Cu -9.024984 -12.635007 -7.220009
Cu -7.220009 -14.439982 -7.220009
Cu -7.220009 -12.635007 -5.414998
Cu -5.414998 -14.439982 -5.414998
Cu -5.414998 -12.635007 -7.220009
Cu -3.609987 -14.439982 -7.220009
Cu -3.609987 -12.635007 -5.414998
Cu -1.805011 -14.439982 -5.414998
Cu -1.805011 -12.635007 -7.220009
Cu 0.000000 -14.439982 -7.220009
Cu 0.000000 -12.635007 -5.414998
Cu 1.805011 -14.439982 -5.414998
Cu 1.805011 -12.635007 -7.220009
Cu 3.609987 -14.439982 -7.220009
Cu 3.609987 -12.635007 -5.414998
Cu 5.414998 -14.439982 -5.414998
Cu 5.414998 -12.635007 -7.220009
Cu 7.220009 -14.439982 -7.220009
Cu 7.220009 -12.635007 -5.414998
Cu 9.024985 -14.439982 -5.414998
Cu 9.024985 -12.635007 -7.220009
Cu 10.829996 -14.439982 -7.220009
Cu 10.829996 -12.635007 -5.414998
Cu 12.635007 -14.439982 -5.414998
Cu 12.635007 -12.635007 -7.220009
Cu 14.439983 -14.439982 -7.220009
Cu 14.439983 -12.635007 -5.414998
Cu 16.244994 -14.439982 -5.414998
Cu 16.244994 -12.635007 -7.220009
Cu 18.050005 -14.439982 -7.220009
Cu 18.050005 -12.635007 -5.414998
Cu -18.050000 -10.829996 -7.220009
Cu -18.050000 -9.024984 -5.414998
Cu -16.245001 -10.829996 -5.414998
Cu -16.245001 -9.024984 -7.220009
Cu -14.439982 -10.829996 -7.220009
Cu -14.439982 -9.024984 -5.414998
Cu -12.635007 -10.829996 -5.414998
Cu -12.635007 -9.024984 -7.220009
Cu -10.829996 -10.829996 -7.220009
Cu -10.829996 -9.024984 -5.414998
Cu -9.024984 -10.829996 -5.414998
Cu -9.024984 -9.024984 -7.220009
Cu -7.220009 -10.829996 -7.220009
Cu -7.220009 -9.024984 -5.414998
Cu -5.414998 -10.829996 -5.414998
Cu -5.414998 -9.024984 -7.220009
Cu -3.609987 -10.829996 -7.220009
Cu -3.609987 -9.024984 -5.414998
Cu -1.805011 -10.829996 -5.414998
Cu -1.805011 -9.024984 -7.220009
Cu 0.000000 -10.829996 -7.220009
Cu 0.000000 -9.024984 -5.414998
Cu 1.805011 -10.829996 -5.414998
Cu 1.805011 -9.024984 -7.220009
Cu 3.609987 -10.829996 -7.220009
Cu 3.609987 -9.024984 -5.414998
Cu 5.414998 -10.829996 -5.414998
Cu 5.414998 -9.024984 -7.220009
Cu 7.220009 -10.829996 -7.220009
Cu 7.220009 -9.024984 -5.414998
Cu 9.024985 -10.829996 -5.414998
Cu 9.024985 -9.024984 -7.220009
Cu 10.829996 -10.829996 -7.220009
Cu 10.829996 -9.024984 -5.414998
Cu 12.635007 -10.829996 -5.414998
Cu 12.635007 -9.024984 -7.220009
Cu 14.439983 -10.829996 -7.220009
Cu 14.439983 -9.024984 -5.414998
Cu 16.244994 -10.829996 -5.414998
Cu 16.244994 -9.024984 -7.220009
Cu 18.050005 -10.829996 -7.220009
Cu 18.050005 -9.024984 -5.414998
Cu -18.050000 -7.220009 -7.220009
Cu -18.050000 -5.414998 -5.414998
Cu -16.245001 -7.220009 -5.414998
Cu -16.245001 -5.414998 -7.220009
Cu -14.439982 -7.220009 -7.220009
Cu -14.439982 -5.414998 -5.414998
Cu -12.635007 -7.220009 -5.414998
Cu -12.635007 -5.414998 -7.220009
Cu -10.829996 -7.220009 -7.220009
Cu -10.829996 -5.414998 -5.414998
Cu -9.024984 -7.220009 -5.414998
Cu -9.024984 -5.414998 -7.220009
Cu -7.220009 -7.220009 -7.220009
Cu -7.220009 -5.414998 -5.414998
Cu -5.414998 -7.220009 -5.414998
Cu -5.414998 -5.414998 -7.220009
Cu -3.609987 -7.220009 -7.220009
Cu -3.609987 -5.414998 -5.414998
Cu -1.805011 -7.220009 -5.414998
Cu -1.805011 -5.414998 -7.220009
Cu 0.000000 -7.220009 -7.220009
Cu 0.000000 -5.414998 -5.414998
Cu 1.805011 -7.220009 -5.414998
Cu 1.805011 -5.414998 -7.220009
Cu 3.609987 -7.220009 -7.220009
Cu 3.609987 -5.414998 -5.414998
Cu 5.414998 -7.220009 -5.414998
Cu 5.414998 -5.414998 -7.220009
Cu 7.220009 -7.220009 -7.220009
Cu 7.220009 -5.414998 -5.414998
Cu 9.024985 -7.220009 -5.414998
Cu 9.024985 -5.414998 -7.220009
Cu 10.829996 -7.220009 -7.220009
Cu 10.829996 -5.414998 -5.414998
Cu 12.635007 -7.220009 -5.414998
Cu 12.635007 -5.414998 -7.220009
Cu 14.439983 -7.220009 -7.220009
Cu 14.439983 -5.414998 -5.414998
Cu 16.244994 -7.220009 -5.414998
Cu 16.244994 -5.414998 -7.220009
Cu 18.050005 -7.220009 -7.220009
Cu 18.050005 -5.414998 -5.414998
Cu -18.050000 -3.609987 -7.220009
Cu -18.050000 -1.805011 -5.414998
Cu -16.245001 -3.609987 -5.414998
Cu -16.245001 -1.805011 -7.220009
Cu -14.439982 -3.609987 -7.220009
Cu -14.439982 -1.805011 -5.414998
Cu -12.635007 -3.609987 -5.414998
Cu -12.635007 -1.805011 -7.220009
Cu -10.829996 -3.609987 -7.220009
Cu -10.829996 -1.805011 -5.414998
Cu -9.024984 -3.609987 -5.414998
Cu -9.024984 -1.805011 -7.220009
Cu -7.220009 -3.609987 -7.220009
Cu -7.220009 -1.805011 -5.414998
Cu -5.414998 -3.609987 -5.414998
Cu -5.414998 -1.805011 -7.220009
Cu -3.609987 -3.609987 -7.220009
Cu -3.609987 -1.805011 -5.414998
Cu -1.805011 -3.609987 -5.414998
Cu -1.805011 -1.805011 -7.220009
Cu 0.000000 -3.609987 -7.220009
Cu 0.000000 -1.805011 -5.414998
Cu 1.805011 -3.609987 -5.414998
Cu 1.805011 -1.805011 -7.220009
Cu 3.609987 -3.609987 -7.220009
Cu 3.609987 -1.805011 -5.414998
Cu 5.414998 -3.609987 -5.414998
Cu 5.414998 -1.805011 -7.220009
Cu 7.220009 -3.609987 -7.220009
Cu 7.220009 -1.805011 -5.414998
Cu 9.024985 -3.609987 -5.414998
Cu 9.024985 -1.805011 -7.220009
Cu 10.829996 -3.609987 -7.220009
Cu 10.829996 -1.805011 -5.414998
Cu 12.635007 -3.609987 -5.414998
Cu 12.635007 -1.805011 -7.220009
Cu 14.439983 -3.609987 -7.220009
Cu 14.439983 -1.805011 -5.414998
Cu 16.244994 -3.609987 -5.414998
Cu 16.244994 -1.805011 -7.220009
Cu 18.050005 -3.609987 -7.220009
Cu 18.050005 -1.805011 -5.414998
Cu -18.050000 0.000000 -7.220009
Cu -18.050000 1.805011 -5.414998
Cu -16.245001 0.000000 -5.414998
Cu -16.245001 1.805011 -7.220009
Cu -18.050000 3.609987 -7.220009
Cu -16.245001 3.609987 -5.414998
Cu -14.439982 0.000000 -7.220009
Cu -14.439982 1.805011 -5.414998
Cu -12.635007 0.000000 -5.414998
Cu -12.635007 1.805011 -7.220009
Cu -14.439982 3.609987 -7.220009
Cu -12.635007 3.609987 -5.414998
Cu -10.829996 0.000000 -7.220009
Cu -10.829996 1.805011 -5.414998
Cu -9.024984 0.000000 -5.414998
Cu -9.024984 1.805011 -7.220009
Cu -10.829996 3.609987 -7.220009
Cu -9.024984 3.609987 -5.414998
Cu -7.220009 0.000000 -7.220009
Cu -7.220009 1.805011 -5.414998
Cu -5.414998 0.000000 -5.414998
Cu -5.414998 1.805011 -7.220009
Cu -7.220009 3.609987 -7.220009
Cu -5.414998 3.609987 -5.414998
Cu -3.609987 0.000000 -7.220009
Cu -3.609987 1.805011 -5.414998
Cu -1.805011 0.000000 -5.414998
Cu -1.805011 1.805011 -7.220009
Cu -3.609987 3.609987 -7.220009
Cu -1.805011 3.609987 -5.414998
Cu 0.000000 0.000000 -7.220009
Cu 0.000000 1.805011 -5.414998
Cu 1.805011 0.000000 -5.414998
Cu 1.805011 1.805011 -7.220009
Cu 0.000000 3.609987 -7.220009
Cu 1.805011 3.609987 -5.414998
Cu 3.609987 0.000000 -7.220009
Cu 3.609987 1.805011 -5.414998
Cu 3.609987 3.609987 -7.220009
Cu 5.414998 0.000000 -5.414998
Cu 5.414998 1.805011 -7.220009
Cu 5.414998 3.609987 -5.414998
Cu 7.220009 0.000000 -7.220009
Cu 7.220009 1.805011 -5.414998
Cu 7.220009 3.609987 -7.220009
Cu 9.024985 0.000000 -5.414998
Cu 9.024985 1.805011 -7.220009
Cu 9.024985 3.609987 -5.414998
Cu 10.829996 0.000000 -7.220009
Cu 10.829996 1.805011 -5.414998
Cu 10.829996 3.609987 -7.220009
Cu 12.635007 0.000000 -5.414998
Cu 12.635007 1.805011 -7.220009
Cu 12.635007 3.609987 -5.414998
Cu 14.439983 0.000000 -7.220009
Cu 14.439983 1.805011 -5.414998
Cu 14.439983 3.609987 -7.220009
Cu 16.244994 0.000000 -5.414998
Cu 16.244994 1.805011 -7.220009
Cu 16.244994 3.609987 -5.414998
Cu 18.050005 0.000000 -7.220009
Cu 18.050005 1.805011 -5.414998
Cu 18.050005 3.609987 -7.220009
Cu -18.050000 5.414998 -5.414998
Cu -16.245001 5.414998 -7.220009
Cu -18.050000 7.220009 -7.220009
Cu -16.245001 7.220009 -5.414998
Cu -14.439982 5.414998 -5.414998
Cu -12.635007 5.414998 -7.220009
Cu -14.439982 7.220009 -7.220009
Cu -12.635007 7.220009 -5.414998
Cu -10.829996 5.414998 -5.414998
Cu -9.024984 5.414998 -7.220009
Cu -10.829996 7.220009 -7.220009
Cu -9.024984 7.220009 -5.414998
Cu -7.220009 5.414998 -5.414998
Cu -5.414998 5.414998 -7.220009
Cu -7.220009 7.220009 -7.220009
Cu -5.414998 7.220009 -5.414998
Cu -3.609987 5.414998 -5.414998
Cu -1.805011 5.414998 -7.220009
Cu -3.609987 7.220009 -7.220009
Cu -1.805011 7.220009 -5.414998
Cu 0.000000 5.414998 -5.414998
Cu 1.805011 5.414998 -7.220009
Cu 0.000000 7.220009 -7.220009
Cu 1.805011 7.220009 -5.414998
Cu 3.609987 5.414998 -5.414998
Cu 3.609987 7.220009 -7.220009
Cu 5.414998 5.414998 -7.220009
Cu 5.414998 7.220009 -5.414998
Cu 7.220009 5.414998 -5.414998
Cu 7.220009 7.220009 -7.220009
Cu 9.024985 5.414998 -7.220009
Cu 9.024985 7.220009 -5.414998
Cu 10.829996 5.414998 -5.414998
Cu 10.829996 7.220009 -7.220009
Cu 12.635007 5.414998 -7.220009
Cu 12.635007 7.220009 -5.414998
Cu 14.439983 5.414998 -5.414998
Cu 14.439983 7.220009 -7.220009
Cu 16.244994 5.414998 -7.220009
Cu 16.244994 7.220009 -5.414998
Cu 18.050005 5.414998 -5.414998
Cu 18.050005 7.220009 -7.220009
Cu -18.050000 9.024985 -5.414998
Cu -16.245001 9.024985 -7.220009
Cu -18.050000 10.829996 -7.220009
Cu -16.245001 10.829996 -5.414998
Cu -14.439982 9.024985 -5.414998
Cu -12.635007 9.024985 -7.220009
Cu -14.439982 10.829996 -7.220009
Cu -12.635007 10.829996 -5.414998
Cu -10.829996 9.024985 -5.414998
Cu -9.024984 9.024985 -7.220009
Cu -10.829996 10.829996 -7.220009
Cu -9.024984 10.829996 -5.414998
Cu -7.220009 9.024985 -5.414998
Cu -5.414998 9.024985 -7.220009
Cu -7.220009 10.829996 -7.220009
Cu -5.414998 10.829996 -5.414998
Cu -3.609987 9.024985 -5.414998
Cu -1.805011 9.024985 -7.220009
Cu -3.609987 10.829996 -7.220009
Cu -1.805011 10.829996 -5.414998
Cu 0.000000 9.024985 -5.414998
Cu 1.805011 9.024985 -7.220009
Cu 0.000000 10.829996 -7.220009
Cu 1.805011 10.829996 -5.414998
Cu 3.609987 9.024985 -5.414998
Cu 3.609987 10.829996 -7.220009
Cu 5.414998 9.024985 -7.220009
Cu 5.414998 10.829996 -5.414998
Cu 7.220009 9.024985 -5.414998
Cu 7.220009 10.829996 -7.220009
Cu 9.024985 9.024985 -7.220009
Cu 9.024985 10.829996 -5.414998
Cu 10.829996 9.024985 -5.414998
Cu 10.829996 10.829996 -7.220009
Cu 12.635007 9.024985 -7.220009
Cu 12.635007 10.829996 -5.414998
Cu 14.439983 9.024985 -5.414998
Cu 14.439983 10.829996 -7.220009
Cu 16.244994 9.024985 -7.220009
Cu 16.244994 10.829996 -5.414998
Cu 18.050005 9.024985 -5.414998
Cu 18.050005 10.829996 -7.220009
Cu -18.050000 12.635007 -5.414998
Cu -16.245001 12.635007 -7.220009
Cu -18.050000 14.439983 -7.220009
Cu -16.245001 14.439983 -5.414998
Cu -14.439982 12.635007 -5.414998
Cu -12.635007 12.635007 -7.220009
Cu -14.439982 14.439983 -7.220009
Cu -12.635007 14.439983 -5.414998
Cu -10.829996 12.635007 -5.414998
Cu -9.024984 12.635007 -7.220009
Cu -10.829996 14.439983 -7.220009
Cu -9.024984 14.439983 -5.414998
Cu -7.220009 12.635007 -5.414998
Cu -5.414998 12.635007 -7.220009
Cu -7.220009 14.439983 -7.220009
Cu -5.414998 14.439983 -5.414998
Cu -3.609987 12.635007 -5.414998
Cu -1.805011 12.635007 -7.220009
Cu -3.609987 14.439983 -7.220009
Cu -1.805011 14.439983 -5.414998
Cu 0.000000 12.635007 -5.414998
Cu 1.805011 12.635007 -7.220009
Cu 0.000000 14.439983 -7.220009
Cu 1.805011 14.439983 -5.414998
Cu 3.609987 12.635007 -5.414998
Cu 3.609987 14.439983 -7.220009
Cu 5.414998 12.635007 -7.220009
Cu 5.414998 14.439983 -5.414998
Cu 7.220009 12.635007 -5.414998
Cu 7.220009 14.439983 -7.220009
Cu 9.024985 12.635007 -7.220009
Cu 9.024985 14.439983 -5.414998
Cu 10.829996 12.635007 -5.414998
Cu 10.829996 14.439983 -7.220009
Cu 12.635007 12.635007 -7.220009
Cu 12.635007 14.439983 -5.414998
Cu 14.439983 12.635007 -5.414998
Cu 14.439983 14.439983 -7.220009
Cu 16.244994 12.635007 -7.220009
Cu 16.244994 14.439983 -5.414998
Cu 18.050005 12.635007 -5.414998
Cu 18.050005 14.439983 -7.220009
Cu -18.050000 16.244994 -5.414998
Cu -16.245001 16.244994 -7.220009
Cu -18.050000 18.050005 -7.220009
Cu -16.245001 18.050005 -5.414998
Cu -14.439982 16.244994 -5.414998
Cu -12.635007 16.244994 -7.220009
Cu -14.439982 18.050005 -7.220009
Cu -12.635007 18.050005 -5.414998
Cu -10.829996 16.244994 -5.414998
Cu -9.024984 16.244994 -7.220009
Cu -10.829996 18.050005 -7.220009
Cu -9.024984 18.050005 -5.414998
Cu -7.220009 16.244994 -5.414998
Cu -5.414998 16.244994 -7.220009
Cu -7.220009 18.050005 -7.220009
Cu -5.414998 18.050005 -5.414998
Cu -3.609987 16.244994 -5.414998
Cu -1.805011 16.244994 -7.220009
Cu -3.609987 18.050005 -7.220009
Cu -1.805011 18.050005 -5.414998
Cu 0.000000 16.244994 -5.414998
Cu 1.805011 16.244994 -7.220009
Cu 0.000000 18.050005 -7.220009
Cu 1.805011 18.050005 -5.414998
Cu 3.609987 16.244994 -5.414998
Cu 3.609987 18.050005 -7.220009
Cu 5.414998 16.244994 -7.220009
Cu 5.414998 18.050005 -5.414998
Cu 7.220009 16.244994 -5.414998
Cu 7.220009 18.050005 -7.220009
Cu 9.024985 16.244994 -7.220009
Cu 9.024985 18.050005 -5.414998
Cu 10.829996 16.244994 -5.414998
Cu 10.829996 18.050005 -7.220009
Cu 12.635007 16.244994 -7.220009
Cu 12.635007 18.050005 -5.414998
Cu 14.439983 16.244994 -5.414998
Cu 14.439983 18.050005 -7.220009
Cu 16.244994 16.244994 -7.220009
Cu 16.244994 18.050005 -5.414998
Cu 18.050005 16.244994 -5.414998
Cu 18.050005 18.050005 -7.220009
Cu -18.050000 -18.050000 -3.609987
Cu -18.050000 -16.245001 -1.805011
Cu -16.245001 -18.050000 -1.805011
Cu -16.245001 -16.245001 -3.609987
Cu -14.439982 -18.050000 -3.609987
Cu -14.439982 -16.245001 -1.805011
Cu -12.635007 -18.050000 -1.805011
Cu -12.635007 -16.245001 -3.609987
Cu -10.829996 -18.050000 -3.609987
Cu -10.829996 -16.245001 -1.805011
Cu -9.024984 -18.050000 -1.805011
Cu -9.024984 -16.245001 -3.609987
Cu -7.220009 -18.050000 -3.609987
Cu -7.220009 -16.245001 -1.805011
Cu -5.414998 -18.050000 -1.805011
Cu -5.414998 -16.245001 -3.609987
Cu -3.609987 -18.050000 -3.609987
Cu -3.609987 -16.245001 -1.805011
Cu -1.805011 -18.050000 -1.805011
Cu -1.805011 -16.245001 -3.609987
Cu 0.000000 -18.050000 -3.609987
Cu 0.000000 -16.245001 -1.805011
Cu 1.805011 -18.050000 -1.805011
Cu 1.805011 -16.245001 -3.609987
Cu 3.609987 -18.050000 -3.609987
Cu 3.609987 -16.245001 -1.805011
Cu 5.414998 -18.050000 -1.805011
Cu 5.414998 -16.245001 -3.609987
Cu 7.220009 -18.050000 -3.609987
Cu 7.220009 -16.245001 -1.805011
Cu 9.024985 -18.050000 -1.805011
Cu 9.024985 -16.245001 -3.609987
Cu 10.829996 -18.050000 -3.609987
Cu 10.829996 -16.245001 -1.805011
Cu 12.635007 -18.050000 -1.805011
Cu 12.635007 -16.245001 -3.609987
Cu 14.439983 -18.050000 -3.609987
Cu 14.439983 -16.245001 -1.805011
Cu 16.244994 -18.050000 -1.805011
Cu 16.244994 -16.245001 -3.609987
Cu 18.050005 -18.050000 -3.609987
Cu 18.050005 -16.245001 -1.805011
Cu -18.050000 -14.439982 -3.609987
Cu -18.050000 -12.635007 -1.805011
Cu -16.245001 -14.439982 -1.805011
Cu -16.245001 -12.635007 -3.609987
Cu -14.439982 -14.439982 -3.609987
Cu -14.439982 -12.635007 -1.805011
Cu -12.635007 -14.439982 -1.805011
Cu -12.635007 -12.635007 -3.609987
Cu -10.829996 -14.439982 -3.609987
Cu -10.829996 -12.635007 -1.805011
Cu -9.024984 -14.439982 -1.805011
Cu -9.024984 -12.635007 -3.609987
Cu -7.220009 -14.439982 -3.609987
Cu -7.220009 -12.635007 -1.805011
Cu -5.414998 -14.439982 -1.805011
Cu -5.414998 -12.635007 -3.609987
Cu -3.609987 -14.439982 -3.609987
Cu -3.609987 -12.635007 -1.805011
Cu -1.805011 -14.439982 -1.805011
Cu -1.805011 -12.635007 -3.609987
Cu 0.000000 -14.439982 -3.609987
Cu 0.000000 -12.635007 -1.805011
Cu 1.805011 -14.439982 -1.805011
Cu 1.805011 -12.635007 -3.609987
Cu 3.609987 -14.439982 -3.609987
Cu 3.609987 -12.635007 -1.805011
Cu 5.414998 -14.439982 -1.805011
Cu 5.414998 -12.635007 -3.609987
Cu 7.220009 -14.439982 -3.609987
Cu 7.220009 -12.635007 -1.805011
Cu 9.024985 -14.439982 -1.805011
Cu 9.024985 -12.635007 -3.609987
Cu 10.829996 -14.439982 -3.609987
Cu 10.829996 -12.635007 -1.805011
Cu 12.635007 -14.439982 -1.805011
Cu 12.635007 -12.635007 -3.609987
Cu 14.439983 -14.439982 -3.609987
Cu 14.439983 -12.635007 -1.805011
Cu 16.244994 -14.439982 -1.805011
Cu 16.244994 -12.635007 -3.609987
Cu 18.050005 -14.439982 -3.609987
Cu 18.050005 -12.635007 -1.805011
Cu -18.050000 -10.829996 -3.609987
Cu -18.050000 -9.024984 -1.805011
Cu -16.245001 -10.829996 -1.805011
Cu -16.245001 -9.024984 -3.609987
Cu -14.439982 -10.829996 -3.609987
Cu -14.439982 -9.024984 -1.805011
Cu -12.635007 -10.829996 -1.805011
Cu -12.635007 -9.024984 -3.609987
Cu -10.829996 -10.829996 -3.609987
Cu -10.829996 -9.024984 -1.805011
Cu -9.024984 -10.829996 -1.805011
Cu -9.024984 -9.024984 -3.609987
Cu -7.220009 -10.829996 -3.609987
Cu -7.220009 -9.024984 -1.805011
Cu -5.414998 -10.829996 -1.805011
Cu -5.414998 -9.024984 -3.609987
Cu -3.609987 -10.829996 -3.609987
Cu -3.609987 -9.024984 -1.805011
Cu -1.805011 -10.829996 -1.805011
Cu -1.805011 -9.024984 -3.609987
Cu 0.000000 -10.829996 -3.609987
Cu 0.000000 -9.024984 -1.805011
Cu 1.805011 -10.829996 -1.805011
Cu 1.805011 -9.024984 -3.609987
Cu 3.609987 -10.829996 -3.609987
Cu 3.609987 -9.024984 -1.805011
Cu 5.414998 -10.829996 -1.805011
Cu 5.414998 -9.024984 -3.609987
Cu 7.220009 -10.829996 -3.609987
Cu 7.220009 -9.024984 -1.805011
Cu 9.024985 -10.829996 -1.805011
Cu 9.024985 -9.024984 -3.609987
Cu 10.829996 -10.829996 -3.609987
Cu 10.829996 -9.024984 -1.805011
Cu 12.635007 -10.829996 -1.805011
Cu 12.635007 -9.024984 -3.609987
Cu 14.439983 -10.829996 -3.609987
Cu 14.439983 -9.024984 -1.805011
Cu 16.244994 -10.829996 -1.805011
Cu 16.244994 -9.024984 -3.609987
Cu 18.050005 -10.829996 -3.609987
Cu 18.050005 -9.024984 -1.805011
Cu -18.050000 -7.220009 -3.609987
Cu -18.050000 -5.414998 -1.805011
Cu -16.245001 -7.220009 -1.805011
Cu -16.245001 -5.414998 -3.609987
Cu -14.439982 -7.220009 -3.609987
Cu -14.439982 -5.414998 -1.805011
Cu -12.635007 -7.220009 -1.805011
Cu -12.635007 -5.414998 -3.609987
Cu -10.829996 -7.220009 -3.609987
Cu -10.829996 -5.414998 -1.805011
Cu -9.024984 -7.220009 -1.805011
Cu -9.024984 -5.414998 -3.609987
Cu -7.220009 -7.220009 -3.609987
Cu -7.220009 -5.414998 -1.805011
Cu -5.414998 -7.220009 -1.805011
Cu -5.414998 -5.414998 -3.609987
Cu -3.609987 -7.220009 -3.609987
Cu -3.609987 -5.414998 -1.805011
Cu -1.805011 -7.220009 -1.805011
Cu -1.805011 -5.414998 -3.609987
Cu 0.000000 -7.220009 -3.609987
Cu 0.000000 -5.414998 -1.805011
Cu 1.805011 -7.220009 -1.805011
Cu 1.805011 -5.414998 -3.609987
Cu 3.609987 -7.220009 -3.609987
Cu 3.609987 -5.414998 -1.805011
Cu 5.414998 -7.220009 -1.805011
Cu 5.414998 -5.414998 -3.609987
Cu 7.220009 -7.220009 -3.609987
Cu 7.220009 -5.414998 -1.805011
Cu 9.024985 -7.220009 -1.805011
Cu 9.024985 -5.414998 -3.609987
Cu 10.829996 -7.220009 -3.609987
Cu 10.829996 -5.414998 -1.805011
Cu 12.635007 -7.220009 -1.805011
Cu 12.635007 -5.414998 -3.609987
Cu 14.439983 -7.220009 -3.609987
Cu 14.439983 -5.414998 -1.805011
Cu 16.244994 -7.220009 -1.805011
Cu 16.244994 -5.414998 -3.609987
Cu 18.050005 -7.220009 -3.609987
Cu 18.050005 -5.414998 -1.805011
Cu -18.050000 -3.609987 -3.609987
Cu -18.050000 -1.805011 -1.805011
Cu -16.245001 -3.609987 -1.805011
Cu -16.245001 -1.805011 -3.609987
Cu -14.439982 -3.609987 -3.609987
Cu -14.439982 -1.805011 -1.805011
Cu -12.635007 -3.609987 -1.805011
Cu -12.635007 -1.805011 -3.609987
Cu -10.829996 -3.609987 -3.609987
Cu -10.829996 -1.805011 -1.805011
Cu -9.024984 -3.609987 -1.805011
Cu -9.024984 -1.805011 -3.609987
Cu -7.220009 -3.609987 -3.609987
Cu -7.220009 -1.805011 -1.805011
Cu -5.414998 -3.609987 -1.805011
Cu -5.414998 -1.805011 -3.609987
Cu -3.609987 -3.609987 -3.609987
Cu -3.609987 -1.805011 -1.805011
Cu -1.805011 -3.609987 -1.805011
Cu -1.805011 -1.805011 -3.609987
Cu 0.000000 -3.609987 -3.609987
Cu 0.000000 -1.805011 -1.805011
Cu 1.805011 -3.609987 -1.805011
Cu 1.805011 -1.805011 -3.609987
Cu 3.609987 -3.609987 -3.609987
Cu 3.609987 -1.805011 -1.805011
Cu 5.414998 -3.609987 -1.805011
Cu 5.414998 -1.805011 -3.609987
Cu 7.220009 -3.609987 -3.609987
Cu 7.220009 -1.805011 -1.805011
Cu 9.024985 -3.609987 -1.805011
Cu 9.024985 -1.805011 -3.609987
Cu 10.829996 -3.609987 -3.609987
Cu 10.829996 -1.805011 -1.805011
Cu 12.635007 -3.609987 -1.805011
Cu 12.635007 -1.805011 -3.609987
Cu 14.439983 -3.609987 -3.609987
Cu 14.439983 -1.805011 -1.805011
Cu 16.244994 -3.609987 -1.805011
Cu 16.244994 -1.805011 -3.609987
Cu 18.050005 -3.609987 -3.609987
Cu 18.050005 -1.805011 -1.805011
Cu -18.050000 0.000000 -3.609987
Cu -18.050000 1.805011 -1.805011
Cu -16.245001 0.000000 -1.805011
Cu -16.245001 1.805011 -3.609987
Cu -18.050000 3.609987 -3.609987
Cu -16.245001 3.609987 -1.805011
Cu -14.439982 0.000000 -3.609987
Cu -14.439982 1.805011 -1.805011
Cu -12.635007 0.000000 -1.805011
Cu -12.635007 1.805011 -3.609987
Cu -14.439982 3.609987 -3.609987
Cu -12.635007 3.609987 -1.805011
Cu -10.829996 0.000000 -3.609987
Cu -10.829996 1.805011 -1.805011
Cu -9.024984 0.000000 -1.805011
Cu -9.024984 1.805011 -3.609987
Cu -10.829996 3.609987 -3.609987
Cu -9.024984 3.609987 -1.805011
Cu -7.220009 0.000000 -3.609987
Cu -7.220009 1.805011 -1.805011
Cu -5.414998 0.000000 -1.805011
Cu -5.414998 1.805011 -3.609987
Cu -7.220009 3.609987 -3.609987
Cu -5.414998 3.609987 -1.805011
Cu -3.609987 0.000000 -3.609987
Cu -3.609987 1.805011 -1.805011
Cu -1.805011 0.000000 -1.805011
Cu -1.805011 1.805011 -3.609987
Cu -3.609987 3.609987 -3.609987
Cu -1.805011 3.609987 -1.805011
Cu 0.000000 0.000000 -3.609987
Cu 0.000000 1.805011 -1.805011
Cu 1.805011 0.000000 -1.805011
Cu 1.805011 1.805011 -3.609987
Cu 0.000000 3.609987 -3.609987
Cu 1.805011 3.609987 -1.805011
Cu 3.609987 0.000000 -3.609987
Cu 3.609987 1.805011 -1.805011
Cu 3.609987 3.609987 -3.609987
Cu 5.414998 0.000000 -1.805011
Cu 5.414998 1.805011 -3.609987
Cu 5.414998 3.609987 -1.805011
Cu 7.220009 0.000000 -3.609987
Cu 7.220009 1.805011 -1.805011
Cu 7.220009 3.609987 -3.609987
Cu 9.024985 0.000000 -1.805011
Cu 9.024985 1.805011 -3.609987
Cu 9.024985 3.609987 -1.805011
Cu 10.829996 0.000000 -3.609987
Cu 10.829996 1.805011 -1.805011
Cu 10.829996 3.609987 -3.609987
Cu 12.635007 0.000000 -1.805011
Cu 12.635007 1.805011 -3.609987
Cu 12.635007 3.609987 -1.805011
Cu 14.439983 0.000000 -3.609987
Cu 14.439983 1.805011 -1.805011
Cu 14.439983 3.609987 -3.609987
Cu 16.244994 0.000000 -1.805011
Cu 16.244994 1.805011 -3.609987
Cu 16.244994 3.609987 -1.805011
Cu 18.050005 0.000000 -3.609987
Cu 18.050005 1.805011 -1.805011
Cu 18.050005 3.609987 -3.609987
Cu -18.050000 5.414998 -1.805011
Cu -16.245001 5.414998 -3.609987
Cu -18.050000 7.220009 -3.609987
Cu -16.245001 7.220009 -1.805011
Cu -14.439982 5.414998 -1.805011
Cu -12.635007 5.414998 -3.609987
Cu -14.439982 7.220009 -3.609987
Cu -12.635007 7.220009 -1.805011
Cu -10.829996 5.414998 -1.805011
Cu -9.024984 5.414998 -3.609987
Cu -10.829996 7.220009 -3.609987
Cu -9.024984 7.220009 -1.805011
Cu -7.220009 5.414998 -1.805011
Cu -5.414998 5.414998 -3.609987
Cu -7.220009 7.220009 -3.609987
Cu -5.414998 7.220009 -1.805011
Cu -3.609987 5.414998 -1.805011
Cu -1.805011 5.414998 -3.609987
Cu -3.609987 7.220009 -3.609987
Cu -1.805011 7.220009 -1.805011
Cu 0.000000 5.414998 -1.805011
Cu 1.805011 5.414998 -3.609987
Cu 0.000000 7.220009 -3.609987
Cu 1.805011 7.220009 -1.805011
Cu 3.609987 5.414998 -1.805011
Cu 3.609987 7.220009 -3.609987
Cu 5.414998 5.414998 -3.609987
Cu 5.414998 7.220009 -1.805011
Cu 7.220009 5.414998 -1.805011
Cu 7.220009 7.220009 -3.609987
Cu 9.024985 5.414998 -3.609987
Cu 9.024985 7.220009 -1.805011
Cu 10.829996 5.414998 -1.805011
Cu 10.829996 7.220009 -3.609987
Cu 12.635007 5.414998 -3.609987
Cu 12.635007 7.220009 -1.805011
Cu 14.439983 5.414998 -1.805011
Cu 14.439983 7.220009 -3.609987
Cu 16.244994 5.414998 -3.609987
Cu 16.244994 7.220009 -1.805011
Cu 18.050005 5.414998 -1.805011
Cu 18.050005 7.220009 -3.609987
Cu -18.050000 9.024985 -1.805011
Cu -16.245001 9.024985 -3.609987
Cu -18.050000 10.829996 -3.609987
Cu -16.245001 10.829996 -1.805011
Cu -14.439982 9.024985 -1.805011
Cu -12.635007 9.024985 -3.609987
Cu -14.439982 10.829996 -3.609987
Cu -12.635007 10.829996 -1.805011
Cu -10.829996 9.024985 -1.805011
Cu -9.024984 9.024985 -3.609987
Cu -10.829996 10.829996 -3.609987
Cu -9.024984 10.829996 -1.805011
Cu -7.220009 9.024985 -1.805011
Cu -5.414998 9.024985 -3.609987
Cu -7.220009 10.829996 -3.609987
Cu -5.414998 10.829996 -1.805011
Cu -3.609987 9.024985 -1.805011
Cu -1.805011 9.024985 -3.609987
Cu -3.609987 10.829996 -3.609987
Cu -1.805011 10.829996 -1.805011
Cu 0.000000 9.024985 -1.805011
Cu 1.805011 9.024985 -3.609987
Cu 0.000000 10.829996 -3.609987
Cu 1.805011 10.829996 -1.805011
Cu 3.609987 9.024985 -1.805011
Cu 3.609987 10.829996 -3.609987
Cu 5.414998 9.024985 -3.609987
Cu 5.414998 10.829996 -1.805011
Cu 7.220009 9.024985 -1.805011
Cu 7.220009 10.829996 -3.609987
Cu 9.024985 9.024985 -3.609987
Cu 9.024985 10.829996 -1.805011
Cu 10.829996 9.024985 -1.805011
Cu 10.829996 10.829996 -3.609987
Cu 12.635007 9.024985 -3.609987
Cu 12.635007 10.829996 -1.805011
Cu 14.439983 9.024985 -1.805011
Cu 14.439983 10.829996 -3.609987
Cu 16.244994 9.024985 -3.609987
Cu 16.244994 10.829996 -1.805011
Cu 18.050005 9.024985 -1.805011
Cu 18.050005 10.829996 -3.609987
Cu -18.050000 12.635007 -1.805011
Cu -16.245001 12.635007 -3.609987
Cu -18.050000 14.439983 -3.609987
Cu -16.245001 14.439983 -1.805011
Cu -14.439982 12.635007 -1.805011
Cu -12.635007 12.635007 -3.609987
Cu -14.439982 14.439983 -3.609987
Cu -12.635007 14.439983 -1.805011
Cu -10.829996 12.635007 -1.805011
Cu -9.024984 12.635007 -3.609987
Cu -10.829996 14.439983 -3.609987
Cu -9.024984 14.439983 -1.805011
Cu -7.220009 12.635007 -1.805011
Cu -5.414998 12.635007 -3.609987
Cu -7.220009 14.439983 -3.609987
Cu -5.414998 14.439983 -1.805011
Cu -3.609987 12.635007 -1.805011
Cu -1.805011 12.635007 -3.609987
Cu -3.609987 14.439983 -3.609987
Cu -1.805011 14.439983 -1.805011
Cu 0.000000 12.635007 -1.805011
Cu 1.805011 12.635007 -3.609987
Cu 0.000000 14.439983 -3.609987
Cu 1.805011 14.439983 -1.805011
Cu 3.609987 12.635007 -1.805011
Cu 3.609987 14.439983 -3.609987
Cu 5.414998 12.635007 -3.609987
Cu 5.414998 14.439983 -1.805011
Cu 7.220009 12.635007 -1.805011
Cu 7.220009 14.439983 -3.609987
Cu 9.024985 12.635007 -3.609987
Cu 9.024985 14.439983 -1.805011
Cu 10.829996 12.635007 -1.805011
Cu 10.829996 14.439983 -3.609987
Cu 12.635007 12.635007 -3.609987
Cu 12.635007 14.439983 -1.805011
Cu 14.439983 12.635007 -1.805011
Cu 14.439983 14.439983 -3.609987
Cu 16.244994 12.635007 -3.609987
Cu 16.244994 14.439983 -1.805011
Cu 18.050005 12.635007 -1.805011
Cu 18.050005 14.439983 -3.609987
Cu -18.050000 16.244994 -1.805011
Cu -16.245001 16.244994 -3.609987
Cu -18.050000 18.050005 -3.609987
Cu -16.245001 18.050005 -1.805011
Cu -14.439982 16.244994 -1.805011
Cu -12.635007 16.244994 -3.609987
Cu -14.439982 18.050005 -3.609987
Cu -12.635007 18.050005 -1.805011
Cu -10.829996 16.244994 -1.805011
Cu -9.024984 16.244994 -3.609987
Cu -10.829996 18.050005 -3.609987
Cu -9.024984 18.050005 -1.805011
Cu -7.220009 16.244994 -1.805011
Cu -5.414998 16.244994 -3.609987
Cu -7.220009 18.050005 -3.609987
Cu -5.414998 18.050005 -1.805011
Cu -3.609987 16.244994 -1.805011
Cu -1.805011 16.244994 -3.609987
Cu -3.609987 18.050005 -3.609987
Cu -1.805011 18.050005 -1.805011
Cu 0.000000 16.244994 -1.805011
Cu 1.805011 16.244994 -3.609987
Cu 0.000000 18.050005 -3.609987
Cu 1.805011 18.050005 -1.805011
Cu 3.609987 16.244994 -1.805011
Cu 3.609987 18.050005 -3.609987
Cu 5.414998 16.244994 -3.609987
Cu 5.414998 18.050005 -1.805011
Cu 7.220009 16.244994 -1.805011
Cu 7.220009 18.050005 -3.609987
Cu 9.024985 16.244994 -3.609987
Cu 9.024985 18.050005 -1.805011
Cu 10.829996 16.244994 -1.805011
Cu 10.829996 18.050005 -3.609987
Cu 12.635007 16.244994 -3.609987
Cu 12.635007 18.050005 -1.805011
Cu 14.439983 16.244994 -1.805011
Cu 14.439983 18.050005 -3.609987
Cu 16.244994 16.244994 -3.609987
Cu 16.244994 18.050005 -1.805011
Cu 18.050005 16.244994 -1.805011
Cu 18.050005 18.050005 -3.609987
Cu -18.050000 -18.050000 0.000000
Cu -18.050000 -16.245001 1.805011
Cu -16.245001 -18.050000 1.805011
Cu -16.245001 -16.245001 0.000000
Cu -18.050000 -18.050000 3.609987
Cu -16.245001 -16.245001 3.609987
Cu -14.439982 -18.050000 0.000000
Cu -14.439982 -16.245001 1.805011
Cu -12.635007 -18.050000 1.805011
Cu -12.635007 -16.245001 0.000000
Cu -14.439982 -18.050000 3.609987
Cu -12.635007 -16.245001 3.609987
Cu -10.829996 -18.050000 0.000000
Cu -10.829996 -16.245001 1.805011
Cu -9.024984 -18.050000 1.805011
Cu -9.024984 -16.245001 0.000000
Cu -10.829996 -18.050000 3.609987
Cu -9.024984 -16.245001 3.609987
Cu -7.220009 -18.050000 0.000000
Cu -7.220009 -16.245001 1.805011
Cu -5.414998 -18.050000 1.805011
Cu -5.414998 -16.245001 0.000000
Cu -7.220009 -18.050000 3.609987
Cu -5.414998 -16.245001 3.609987
Cu -3.609987 -18.050000 0.000000
Cu -3.609987 -16.245001 1.805011
Cu -1.805011 -18.050000 1.805011
Cu -1.805011 -16.245001 0.000000
Cu -3.609987 -18.050000 3.609987
Cu -1.805011 -16.245001 3.609987
Cu 0.000000 -18.050000 0.000000
Cu 0.000000 -16.245001 1.805011
Cu 1.805011 -18.050000 1.805011
Cu 1.805011 -16.245001 0.000000
Cu 0.000000 -18.050000 3.609987
Cu 1.805011 -16.245001 3.609987
Cu 3.609987 -18.050000 0.000000
Cu 3.609987 -16.245001 1.805011
Cu 3.609987 -18.050000 3.609987
Cu 5.414998 -18.050000 1.805011
Cu 5.414998 -16.245001 0.000000
Cu 5.414998 -16.245001 3.609987
Cu 7.220009 -18.050000 0.000000
Cu 7.220009 -16.245001 1.805011
Cu 7.220009 -18.050000 3.609987
Cu 9.024985 -18.050000 1.805011
Cu 9.024985 -16.245001 0.000000
Cu 9.024985 -16.245001 3.609987
Cu 10.829996 -18.050000 0.000000
Cu 10.829996 -16.245001 1.805011
Cu 10.829996 -18.050000 3.609987
Cu 12.635007 -18.050000 1.805011
Cu 12.635007 -16.245001 0.000000
Cu 12.635007 -16.245001 3.609987
Cu 14.439983 -18.050000 0.000000
Cu 14.439983 -16.245001 1.805011
Cu 14.439983 -18.050000 3.609987
Cu 16.244994 -18.050000 1.805011
Cu 16.244994 -16.245001 0.000000
Cu 16.244994 -16.245001 3.609987
Cu 18.050005 -18.050000 0.000000
Cu 18.050005 -16.245001 1.805011
Cu 18.050005 -18.050000 3.609987
Cu -18.050000 -14.439982 0.000000
Cu -18.050000 -12.635007 1.805011
Cu -16.245001 -14.439982 1.805011
Cu -16.245001 -12.635007 0.000000
Cu -18.050000 -14.439982 3.609987
Cu -16.245001 -12.635007 3.609987
Cu -14.439982 -14.439982 0.000000
Cu -14.439982 -12.635007 1.805011
Cu -12.635007 -14.439982 1.805011
Cu -12.635007 -12.635007 0.000000
Cu -14.439982 -14.439982 3.609987
Cu -12.635007 -12.635007 3.609987
Cu -10.829996 -14.439982 0.000000
Cu -10.829996 -12.635007 1.805011
Cu -9.024984 -14.439982 1.805011
Cu -9.024984 -12.635007 0.000000
Cu -10.829996 -14.439982 3.609987
Cu -9.024984 -12.635007 3.609987
Cu -7.220009 -14.439982 0.000000
Cu -7.220009 -12.635007 1.805011
Cu -5.414998 -14.439982 1.805011
Cu -5.414998 -12.635007 0.000000
Cu -7.220009 -14.439982 3.609987
Cu -5.414998 -12.635007 3.609987
Cu -3.609987 -14.439982 0.000000
Cu -3.609987 -12.635007 1.805011
Cu -1.805011 -14.439982 1.805011
Cu -1.805011 -12.635007 0.000000
Cu -3.609987 -14.439982 3.609987
Cu -1.805011 -12.635007 3.609987
Cu 0.000000 -14.439982 0.000000
Cu 0.000000 -12.635007 1.805011
Cu 1.805011 -14.439982 1.805011
Cu 1.805011 -12.635007 0.000000
Cu 0.000000 -14.439982 3.609987
Cu 1.805011 -12.635007 3.609987
Cu 3.609987 -14.439982 0.000000
Cu 3.609987 -12.635007 1.805011
Cu 3.609987 -14.439982 3.609987
Cu 5.414998 -14.439982 1.805011
Cu 5.414998 -12.635007 0.000000
Cu 5.414998 -12.635007 3.609987
Cu 7.220009 -14.439982 0.000000
Cu 7.220009 -12.635007 1.805011
Cu 7.220009 -14.439982 3.609987
Cu 9.024985 -14.439982 1.805011
Cu 9.024985 -12.635007 0.000000
Cu 9.024985 -12.635007 3.609987
Cu 10.829996 -14.439982 0.000000
Cu 10.829996 -12.635007 1.805011
Cu 10.829996 -14.439982 3.609987
Cu 12.635007 -14.439982 1.805011
Cu 12.635007 -12.635007 0.000000
Cu 12.635007 -12.635007 3.609987
Cu 14.439983 -14.439982 0.000000
Cu 14.439983 -12.635007 1.805011
Cu 14.439983 -14.439982 3.609987
Cu 16.244994 -14.439982 1.805011
Cu 16.244994 -12.635007 0.000000
Cu 16.244994 -12.635007 3.609987
Cu 18.050005 -14.439982 0.000000
Cu 18.050005 -12.635007 1.805011
Cu 18.050005 -14.439982 3.609987
Cu -18.050000 -10.829996 0.000000
Cu -18.050000 -9.024984 1.805011
Cu -16.245001 -10.829996 1.805011
Cu -16.245001 -9.024984 0.000000
Cu -18.050000 -10.829996 3.609987
Cu -16.245001 -9.024984 3.609987
Cu -14.439982 -10.829996 0.000000
Cu -14.439982 -9.024984 1.805011
Cu -12.635007 -10.829996 1.805011
Cu -12.635007 -9.024984 0.000000
Cu -14.439982 -10.829996 3.609987
Cu -12.635007 -9.024984 3.609987
Cu -10.829996 -10.829996 0.000000
Cu -10.829996 -9.024984 1.805011
Cu -9.024984 -10.829996 1.805011
Cu -9.024984 -9.024984 0.000000
Cu -10.829996 -10.829996 3.609987
Cu -9.024984 -9.024984 3.609987
Cu -7.220009 -10.829996 0.000000
Cu -7.220009 -9.024984 1.805011
Cu -5.414998 -10.829996 1.805011
Cu -5.414998 -9.024984 0.000000
Cu -7.220009 -10.829996 3.609987
Cu -5.414998 -9.024984 3.609987
Cu -3.609987 -10.829996 0.000000
Cu -3.609987 -9.024984 1.805011
Cu -1.805011 -10.829996 1.805011
Cu -1.805011 -9.024984 0.000000
Cu -3.609987 -10.829996 3.609987
Cu -1.805011 -9.024984 3.609987
Cu 0.000000 -10.829996 0.000000
Cu 0.000000 -9.024984 1.805011
Cu 1.805011 -10.829996 1.805011
Cu 1.805011 -9.024984 0.000000
Cu 0.000000 -10.829996 3.609987
Cu 1.805011 -9.024984 3.609987
Cu 3.609987 -10.829996 0.000000
Cu 3.609987 -9.024984 1.805011
Cu 3.609987 -10.829996 3.609987
Cu 5.414998 -10.829996 1.805011
Cu 5.414998 -9.024984 0.000000
Cu 5.414998 -9.024984 3.609987
Cu 7.220009 -10.829996 0.000000
Cu 7.220009 -9.024984 1.805011
Cu 7.220009 -10.829996 3.609987
Cu 9.024985 -10.829996 1.805011
Cu 9.024985 -9.024984 0.000000
Cu 9.024985 -9.024984 3.609987
Cu 10.829996 -10.829996 0.000000
Cu 10.829996 -9.024984 1.805011
Cu 10.829996 -10.829996 3.609987
Cu 12.635007 -10.829996 1.805011
Cu 12.635007 -9.024984 0.000000
Cu 12.635007 -9.024984 3.609987
Cu 14.439983 -10.829996 0.000000
Cu 14.439983 -9.024984 1.805011
Cu 14.439983 -10.829996 3.609987
Cu 16.244994 -10.829996 1.805011
Cu 16.244994 -9.024984 0.000000
Cu 16.244994 -9.024984 3.609987
Cu 18.050005 -10.829996 0.000000
Cu 18.050005 -9.024984 1.805011
Cu 18.050005 -10.829996 3.609987
Cu -18.050000 -7.220009 0.000000
Cu -18.050000 -5.414998 1.805011
Cu -16.245001 -7.220009 1.805011
Cu -16.245001 -5.414998 0.000000
Cu -18.050000 -7.220009 3.609987
Cu -16.245001 -5.414998 3.609987
Cu -14.439982 -7.220009 0.000000
Cu -14.439982 -5.414998 1.805011
Cu -12.635007 -7.220009 1.805011
Cu -12.635007 -5.414998 0.000000
Cu -14.439982 -7.220009 3.609987
Cu -12.635007 -5.414998 3.609987
Cu -10.829996 -7.220009 0.000000
Cu -10.829996 -5.414998 1.805011
Cu -9.024984 -7.220009 1.805011
Cu -9.024984 -5.414998 0.000000
Cu -10.829996 -7.220009 3.609987
Cu -9.024984 -5.414998 3.609987
Cu -7.220009 -7.220009 0.000000
Cu -7.220009 -5.414998 1.805011
Cu -5.414998 -7.220009 1.805011
Cu -5.414998 -5.414998 0.000000
Cu -7.220009 -7.220009 3.609987
Cu -5.414998 -5.414998 3.609987
Cu -3.609987 -7.220009 0.000000
Cu -3.609987 -5.414998 1.805011
Cu -1.805011 -7.220009 1.805011
Cu -1.805011 -5.414998 0.000000
Cu -3.609987 -7.220009 3.609987
Cu -1.805011 -5.414998 3.609987
Cu 0.000000 -7.220009 0.000000
Cu 0.000000 -5.414998 1.805011
Cu 1.805011 -7.220009 1.805011
Cu 1.805011 -5.414998 0.000000
Cu 0.000000 -7.220009 3.609987
Cu 1.805011 -5.414998 3.609987
Cu 3.609987 -7.220009 0.000000
Cu 3.609987 -5.414998 1.805011
Cu 3.609987 -7.220009 3.609987
Cu 5.414998 -7.220009 1.805011
Cu 5.414998 -5.414998 0.000000
Cu 5.414998 -5.414998 3.609987
Cu 7.220009 -7.220009 0.000000
Cu 7.220009 -5.414998 1.805011
Cu 7.220009 -7.220009 3.609987
Cu 9.024985 -7.220009 1.805011
Cu 9.024985 -5.414998 0.000000
Cu 9.024985 -5.414998 3.609987
Cu 10.829996 -7.220009 0.000000
Cu 10.829996 -5.414998 1.805011
Cu 10.829996 -7.220009 3.609987
Cu 12.635007 -7.220009 1.805011
Cu 12.635007 -5.414998 0.000000
Cu 12.635007 -5.414998 3.609987
Cu 14.439983 -7.220009 0.000000
Cu 14.439983 -5.414998 1.805011
Cu 14.439983 -7.220009 3.609987
Cu 16.244994 -7.220009 1.805011
Cu 16.244994 -5.414998 0.000000
Cu 16.244994 -5.414998 3.609987
Cu 18.050005 -7.220009 0.000000
Cu 18.050005 -5.414998 1.805011
Cu 18.050005 -7.220009 3.609987
Cu -18.050000 -3.609987 0.000000
Cu -18.050000 -1.805011 1.805011
Cu -16.245001 -3.609987 1.805011
Cu -16.245001 -1.805011 0.000000
Cu -18.050000 -3.609987 3.609987
Cu -16.245001 -1.805011 3.609987
Cu -14.439982 -3.609987 0.000000
Cu -14.439982 -1.805011 1.805011
Cu -12.635007 -3.609987 1.805011
Cu -12.635007 -1.805011 0.000000
Cu -14.439982 -3.609987 3.609987
Cu -12.635007 -1.805011 3.609987
Cu -10.829996 -3.609987 0.000000
Cu -10.829996 -1.805011 1.805011
Cu -9.024984 -3.609987 1.805011
Cu -9.024984 -1.805011 0.000000
Cu -10.829996 -3.609987 3.609987
Cu -9.024984 -1.805011 3.609987
Cu -7.220009 -3.609987 0.000000
Cu -7.220009 -1.805011 1.805011
Cu -5.414998 -3.609987 1.805011
Cu -5.414998 -1.805011 0.000000
Cu -7.220009 -3.609987 3.609987
Cu -5.414998 -1.805011 3.609987
Cu -3.609987 -3.609987 0.000000
Cu -3.609987 -1.805011 1.805011
Cu -1.805011 -3.609987 1.805011
Cu -1.805011 -1.805011 0.000000
Cu -3.609987 -3.609987 3.609987
Cu -1.805011 -1.805011 3.609987
Cu 0.000000 -3.609987 0.000000
Cu 0.000000 -1.805011 1.805011
Cu 1.805011 -3.609987 1.805011
Cu 1.805011 -1.805011 0.000000
Cu 0.000000 -3.609987 3.609987
Cu 1.805011 -1.805011 3.609987
Cu 3.609987 -3.609987 0.000000
Cu 3.609987 -1.805011 1.805011
Cu 3.609987 -3.609987 3.609987
Cu 5.414998 -3.609987 1.805011
Cu 5.414998 -1.805011 0.000000
Cu 5.414998 -1.805011 3.609987
Cu 7.220009 -3.609987 0.000000
Cu 7.220009 -1.805011 1.805011
Cu 7.220009 -3.609987 3.609987
Cu 9.024985 -3.609987 1.805011
Cu 9.024985 -1.805011 0.000000
Cu 9.024985 -1.805011 3.609987
Cu 10.829996 -3.609987 0.000000
Cu 10.829996 -1.805011 1.805011
Cu 10.829996 -3.609987 3.609987
Cu 12.635007 -3.609987 1.805011
Cu 12.635007 -1.805011 0.000000
Cu 12.635007 -1.805011 3.609987
Cu 14.439983 -3.609987 0.000000
Cu 14.439983 -1.805011 1.805011
Cu 14.439983 -3.609987 3.609987
Cu 16.244994 -3.609987 1.805011
Cu 16.244994 -1.805011 0.000000
Cu 16.244994 -1.805011 3.609987
Cu 18.050005 -3.609987 0.000000
Cu 18.050005 -1.805011 1.805011
Cu 18.050005 -3.609987 3.609987
Cu -18.050000 0.000000 0.000000
Cu -18.050000 1.805011 1.805011
Cu -16.245001 0.000000 1.805011
Cu -16.245001 1.805011 0.000000
Cu -18.050000 0.000000 3.609987
Cu -16.245001 1.805011 3.609987
Cu -18.050000 3.609987 0.000000
Cu -16.245001 3.609987 1.805011
Cu -18.050000 3.609987 3.609987
Cu -14.439982 0.000000 0.000000
Cu -14.439982 1.805011 1.805011
Cu -12.635007 0.000000 1.805011
Cu -12.635007 1.805011 0.000000
Cu -14.439982 0.000000 3.609987
Cu -12.635007 1.805011 3.609987
Cu -14.439982 3.609987 0.000000
Cu -12.635007 3.609987 1.805011
Cu -14.439982 3.609987 3.609987
Cu -10.829996 0.000000 0.000000
Cu -10.829996 1.805011 1.805011
Cu -9.024984 0.000000 1.805011
Cu -9.024984 1.805011 0.000000
Cu -10.829996 0.000000 3.609987
Cu -9.024984 1.805011 3.609987
Cu -10.829996 3.609987 0.000000
Cu -9.024984 3.609987 1.805011
Cu -10.829996 3.609987 3.609987
Cu -7.220009 0.000000 0.000000
Cu -7.220009 1.805011 1.805011
Cu -5.414998 0.000000 1.805011
Cu -5.414998 1.805011 0.000000
Cu -7.220009 0.000000 3.609987
Cu -5.414998 1.805011 3.609987
Cu -7.220009 3.609987 0.000000
Cu -5.414998 3.609987 1.805011
Cu -7.220009 3.609987 3.609987
Cu -3.609987 0.000000 0.000000
Cu -3.609987 1.805011 1.805011
Cu -1.805011 0.000000 1.805011
Cu -1.805011 1.805011 0.000000
Cu -3.609987 0.000000 3.609987
Cu -1.805011 1.805011 3.609987
Cu -3.609987 3.609987 0.000000
Cu -1.805011 3.609987 1.805011
Cu -3.609987 3.609987 3.609987
Cu 0.000000 0.000000 0.000000
Cu 0.000000 1.805011 1.805011
Cu 1.805011 0.000000 1.805011
Cu 1.805011 1.805011 0.000000
Cu 0.000000 0.000000 3.609987
Cu 1.805011 1.805011 3.609987
Cu 0.000000 3.609987 0.000000
Cu 1.805011 3.609987 1.805011
Cu 0.000000 3.609987 3.609987
Cu 3.609987 0.000000 0.000000
Cu 3.609987 1.805011 1.805011
Cu 3.609987 0.000000 3.609987
Cu 3.609987 3.609987 0.000000
Cu 3.609987 3.609987 3.609987
Cu 5.414998 0.000000 1.805011
Cu 5.414998 1.805011 0.000000
Cu 5.414998 1.805011 3.609987
Cu 5.414998 3.609987 1.805011
Cu 7.220009 0.000000 0.000000
Cu 7.220009 1.805011 1.805011
Cu 7.220009 0.000000 3.609987
Cu 7.220009 3.609987 0.000000
Cu 7.220009 3.609987 3.609987
Cu 9.024985 0.000000 1.805011
Cu 9.024985 1.805011 0.000000
Cu 9.024985 1.805011 3.609987
Cu 9.024985 3.609987 1.805011
Cu 10.829996 0.000000 0.000000
Cu 10.829996 1.805011 1.805011
Cu 10.829996 0.000000 3.609987
Cu 10.829996 3.609987 0.000000
Cu 10.829996 3.609987 3.609987
Cu 12.635007 0.000000 1.805011
Cu 12.635007 1.805011 0.000000
Cu 12.635007 1.805011 3.609987
Cu 12.635007 3.609987 1.805011
Cu 14.439983 0.000000 0.000000
Cu 14.439983 1.805011 1.805011
Cu 14.439983 0.000000 3.609987
Cu 14.439983 3.609987 0.000000
Cu 14.439983 3.609987 3.609987
Cu 16.244994 0.000000 1.805011
Cu 16.244994 1.805011 0.000000
Cu 16.244994 1.805011 3.609987
Cu 16.244994 3.609987 1.805011
Cu 18.050005 0.000000 0.000000
Cu 18.050005 1.805011 1.805011
Cu 18.050005 0.000000 3.609987
Cu 18.050005 3.609987 0.000000
Cu 18.050005 3.609987 3.609987
Cu -18.050000 5.414998 1.805011
Cu -16.245001 5.414998 0.000000
Cu -16.245001 5.414998 3.609987
Cu -18.050000 7.220009 0.000000
Cu -16.245001 7.220009 1.805011
Cu -18.050000 7.220009 3.609987
Cu -14.439982 5.414998 1.805011
Cu -12.635007 5.414998 0.000000
Cu -12.635007 5.414998 3.609987
Cu -14.439982 7.220009 0.000000
Cu -12.635007 7.220009 1.805011
Cu -14.439982 7.220009 3.609987
Cu -10.829996 5.414998 1.805011
Cu -9.024984 5.414998 0.000000
Cu -9.024984 5.414998 3.609987
Cu -10.829996 7.220009 0.000000
Cu -9.024984 7.220009 1.805011
Cu -10.829996 7.220009 3.609987
Cu -7.220009 5.414998 1.805011
Cu -5.414998 5.414998 0.000000
Cu -5.414998 5.414998 3.609987
Cu -7.220009 7.220009 0.000000
Cu -5.414998 7.220009 1.805011
Cu -7.220009 7.220009 3.609987
Cu -3.609987 5.414998 1.805011
Cu -1.805011 5.414998 0.000000
Cu -1.805011 5.414998 3.609987
Cu -3.609987 7.220009 0.000000
Cu -1.805011 7.220009 1.805011
Cu -3.609987 7.220009 3.609987
Cu 0.000000 5.414998 1.805011
Cu 1.805011 5.414998 0.000000
Cu 1.805011 5.414998 3.609987
Cu 0.000000 7.220009 0.000000
Cu 1.805011 7.220009 1.805011
Cu 0.000000 7.220009 3.609987
Cu 3.609987 5.414998 1.805011
Cu 3.609987 7.220009 0.000000
Cu 3.609987 7.220009 3.609987
Cu 5.414998 5.414998 0.000000
Cu 5.414998 5.414998 3.609987
Cu 5.414998 7.220009 1.805011
Cu 7.220009 5.414998 1.805011
Cu 7.220009 7.220009 0.000000
Cu 7.220009 7.220009 3.609987
Cu 9.024985 5.414998 0.000000
Cu 9.024985 5.414998 3.609987
Cu 9.024985 7.220009 1.805011
Cu 10.829996 5.414998 1.805011
Cu 10.829996 7.220009 0.000000
Cu 10.829996 7.220009 3.609987
Cu 12.635007 5.414998 0.000000
Cu 12.635007 5.414998 3.609987
Cu 12.635007 7.220009 1.805011
Cu 14.439983 5.414998 1.805011
Cu 14.439983 7.220009 0.000000
Cu 14.439983 7.220009 3.609987
Cu 16.244994 5.414998 0.000000
Cu 16.244994 5.414998 3.609987
Cu 16.244994 7.220009 1.805011
Cu 18.050005 5.414998 1.805011
Cu 18.050005 7.220009 0.000000
Cu 18.050005 7.220009 3.609987
Cu -18.050000 9.024985 1.805011
Cu -16.245001 9.024985 0.000000
Cu -16.245001 9.024985 3.609987
Cu -18.050000 10.829996 0.000000
Cu -16.245001 10.829996 1.805011
Cu -18.050000 10.829996 3.609987
Cu -14.439982 9.024985 1.805011
Cu -12.635007 9.024985 0.000000
Cu -12.635007 9.024985 3.609987
Cu -14.439982 10.829996 0.000000
Cu -12.635007 10.829996 1.805011
Cu -14.439982 10.829996 3.609987
Cu -10.829996 9.024985 1.805011
Cu -9.024984 9.024985 0.000000
Cu -9.024984 9.024985 3.609987
Cu -10.829996 10.829996 0.000000
Cu -9.024984 10.829996 1.805011
Cu -10.829996 10.829996 3.609987
Cu -7.220009 9.024985 1.805011
Cu -5.414998 9.024985 0.000000
Cu -5.414998 9.024985 3.609987
Cu -7.220009 10.829996 0.000000
Cu -5.414998 10.829996 1.805011
Cu -7.220009 10.829996 3.609987
Cu -3.609987 9.024985 1.805011
Cu -1.805011 9.024985 0.000000
Cu -1.805011 9.024985 3.609987
Cu -3.609987 10.829996 0.000000
Cu -1.805011 10.829996 1.805011
Cu -3.609987 10.829996 3.609987
Cu 0.000000 9.024985 1.805011
Cu 1.805011 9.024985 0.000000
Cu 1.805011 9.024985 3.609987
Cu 0.000000 10.829996 0.000000
Cu 1.805011 10.829996 1.805011
Cu 0.000000 10.829996 3.609987
Cu 3.609987 9.024985 1.805011
Cu 3.609987 10.829996 0.000000
Cu 3.609987 10.829996 3.609987
Cu 5.414998 9.024985 0.000000
Cu 5.414998 9.024985 3.609987
Cu 5.414998 10.829996 1.805011
Cu 7.220009 9.024985 1.805011
Cu 7.220009 10.829996 0.000000
Cu 7.220009 10.829996 3.609987
Cu 9.024985 9.024985 0.000000
Cu 9.024985 9.024985 3.609987
Cu 9.024985 10.829996 1.805011
Cu 10.829996 9.024985 1.805011
Cu 10.829996 10.829996 0.000000
Cu 10.829996 10.829996 3.609987
Cu 12.635007 9.024985 0.000000
Cu 12.635007 9.024985 3.609987
Cu 12.635007 10.829996 1.805011
Cu 14.439983 9.024985 1.805011
Cu 14.439983 10.829996 0.000000
Cu 14.439983 10.829996 3.609987
Cu 16.244994 9.024985 0.000000
Cu 16.244994 9.024985 3.609987
Cu 16.244994 10.829996 1.805011
Cu 18.050005 9.024985 1.805011
Cu 18.050005 10.829996 0.000000
Cu 18.050005 10.829996 3.609987
Cu -18.050000 12.635007 1.805011
Cu -16.245001 12.635007 0.000000
Cu -16.245001 12.635007 3.609987
Cu -18.050000 14.439983 0.000000
Cu -16.245001 14.439983 1.805011
Cu -18.050000 14.439983 3.609987
Cu -14.439982 12.635007 1.805011
Cu -12.635007 12.635007 0.000000
Cu -12.635007 12.635007 3.609987
Cu -14.439982 14.439983 0.000000
Cu -12.635007 14.439983 1.805011
Cu -14.439982 14.439983 3.609987
Cu -10.829996 12.635007 1.805011
Cu -9.024984 12.635007 0.000000
Cu -9.024984 12.635007 3.609987
Cu -10.829996 14.439983 0.000000
Cu -9.024984 14.439983 1.805011
Cu -10.829996 14.439983 3.609987
Cu -7.220009 12.635007 1.805011
Cu -5.414998 12.635007 0.000000
Cu -5.414998 12.635007 3.609987
Cu -7.220009 14.439983 0.000000
Cu -5.414998 14.439983 1.805011
Cu -7.220009 14.439983 3.609987
Cu -3.609987 12.635007 1.805011
Cu -1.805011 12.635007 0.000000
Cu -1.805011 12.635007 3.609987
Cu -3.609987 14.439983 0.000000
Cu -1.805011 14.439983 1.805011
Cu -3.609987 14.439983 3.609987
Cu 0.000000 12.635007 1.805011
Cu 1.805011 12.635007 0.000000
Cu 1.805011 12.635007 3.609987
Cu 0.000000 14.439983 0.000000
Cu 1.805011 14.439983 1.805011
Cu 0.000000 14.439983 3.609987
Cu 3.609987 12.635007 1.805011
Cu 3.609987 14.439983 0.000000
Cu 3.609987 14.439983 3.609987
Cu 5.414998 12.635007 0.000000
Cu 5.414998 12.635007 3.609987
Cu 5.414998 14.439983 1.805011
Cu 7.220009 12.635007 1.805011
Cu 7.220009 14.439983 0.000000
Cu 7.220009 14.439983 3.609987
Cu 9.024985 12.635007 0.000000
Cu 9.024985 12.635007 3.609987
Cu 9.024985 14.439983 1.805011
Cu 10.829996 12.635007 1.805011
Cu 10.829996 14.439983 0.000000
Cu 10.829996 14.439983 3.609987
Cu 12.635007 12.635007 0.000000
Cu 12.635007 12.635007 3.609987
Cu 12.635007 14.439983 1.805011
Cu 14.439983 12.635007 1.805011
Cu 14.439983 14.439983 0.000000
Cu 14.439983 14.439983 3.609987
Cu 16.244994 12.635007 0.000000
Cu 16.244994 12.635007 3.609987
Cu 16.244994 14.439983 1.805011
Cu 18.050005 12.635007 1.805011
Cu 18.050005 14.439983 0.000000
Cu 18.050005 14.439983 3.609987
Cu -18.050000 16.244994 1.805011
Cu -16.245001 16.244994 0.000000
Cu -16.245001 16.244994 3.609987
Cu -18.050000 18.050005 0.000000
Cu -16.245001 18.050005 1.805011
Cu -18.050000 18.050005 3.609987
Cu -14.439982 16.244994 1.805011
Cu -12.635007 16.244994 0.000000
Cu -12.635007 16.244994 3.609987
Cu -14.439982 18.050005 0.000000
Cu -12.635007 18.050005 1.805011
Cu -14.439982 18.050005 3.609987
Cu -10.829996 16.244994 1.805011
Cu -9.024984 16.244994 0.000000
Cu -9.024984 16.244994 3.609987
Cu -10.829996 18.050005 0.000000
Cu -9.024984 18.050005 1.805011
Cu -10.829996 18.050005 3.609987
Cu -7.220009 16.244994 1.805011
Cu -5.414998 16.244994 0.000000
Cu -5.414998 16.244994 3.609987
Cu -7.220009 18.050005 0.000000
Cu -5.414998 18.050005 1.805011
Cu -7.220009 18.050005 3.609987
Cu -3.609987 16.244994 1.805011
Cu -1.805011 16.244994 0.000000
Cu -1.805011 16.244994 3.609987
Cu -3.609987 18.050005 0.000000
Cu -1.805011 18.050005 1.805011
Cu -3.609987 18.050005 3.609987
Cu 0.000000 16.244994 1.805011
Cu 1.805011 16.244994 0.000000
Cu 1.805011 16.244994 3.609987
Cu 0.000000 18.050005 0.000000
Cu 1.805011 18.050005 1.805011
Cu 0.000000 18.050005 3.609987
Cu 3.609987 16.244994 1.805011
Cu 3.609987 18.050005 0.000000
Cu 3.609987 18.050005 3.609987
Cu 5.414998 16.244994 0.000000
Cu 5.414998 16.244994 3.609987
Cu 5.414998 18.050005 1.805011
Cu 7.220009 16.244994 1.805011
Cu 7.220009 18.050005 0.000000
Cu 7.220009 18.050005 3.609987
Cu 9.024985 16.244994 0.000000
Cu 9.024985 16.244994 3.609987
Cu 9.024985 18.050005 1.805011
Cu 10.829996 16.244994 1.805011
Cu 10.829996 18.050005 0.000000
Cu 10.829996 18.050005 3.609987
Cu 12.635007 16.244994 0.000000
Cu 12.635007 16.244994 3.609987
Cu 12.635007 18.050005 1.805011
Cu 14.439983 16.244994 1.805011
Cu 14.439983 18.050005 0.000000
Cu 14.439983 18.050005 3.609987
Cu 16.244994 16.244994 0.000000
Cu 16.244994 16.244994 3.609987
Cu 16.244994 18.050005 1.805011
Cu 18.050005 16.244994 1.805011
Cu 18.050005 18.050005 0.000000
Cu 18.050005 18.050005 3.609987
Cu -18.050000 -16.245001 5.414998
Cu -16.245001 -18.050000 5.414998
Cu -18.050000 -18.050000 7.220009
Cu -16.245001 -16.245001 7.220009
Cu -14.439982 -16.245001 5.414998
Cu -12.635007 -18.050000 5.414998
Cu -14.439982 -18.050000 7.220009
Cu -12.635007 -16.245001 7.220009
Cu -10.829996 -16.245001 5.414998
Cu -9.024984 -18.050000 5.414998
Cu -10.829996 -18.050000 7.220009
Cu -9.024984 -16.245001 7.220009
Cu -7.220009 -16.245001 5.414998
Cu -5.414998 -18.050000 5.414998
Cu -7.220009 -18.050000 7.220009
Cu -5.414998 -16.245001 7.220009
Cu -3.609987 -16.245001 5.414998
Cu -1.805011 -18.050000 5.414998
Cu -3.609987 -18.050000 7.220009
Cu -1.805011 -16.245001 7.220009
Cu 0.000000 -16.245001 5.414998
Cu 1.805011 -18.050000 5.414998
Cu 0.000000 -18.050000 7.220009
Cu 1.805011 -16.245001 7.220009
Cu 3.609987 -16.245001 5.414998
Cu 3.609987 -18.050000 7.220009
Cu 5.414998 -18.050000 5.414998
Cu 5.414998 -16.245001 7.220009
Cu 7.220009 -16.245001 5.414998
Cu 7.220009 -18.050000 7.220009
Cu 9.024985 -18.050000 5.414998
Cu 9.024985 -16.245001 7.220009
Cu 10.829996 -16.245001 5.414998
Cu 10.829996 -18.050000 7.220009
Cu 12.635007 -18.050000 5.414998
Cu 12.635007 -16.245001 7.220009
Cu 14.439983 -16.245001 5.414998
Cu 14.439983 -18.050000 7.220009
Cu 16.244994 -18.050000 5.414998
Cu 16.244994 -16.245001 7.220009
Cu 18.050005 -16.245001 5.414998
Cu 18.050005 -18.050000 7.220009
Cu -18.050000 -12.635007 5.414998
Cu -16.245001 -14.439982 5.414998
Cu -18.050000 -14.439982 7.220009
Cu -16.245001 -12.635007 7.220009
Cu -14.439982 -12.635007 5.414998
Cu -12.635007 -14.439982 5.414998
Cu -14.439982 -14.439982 7.220009
Cu -12.635007 -12.635007 7.220009
Cu -10.829996 -12.635007 5.414998
Cu -9.024984 -14.439982 5.414998
Cu -10.829996 -14.439982 7.220009
Cu -9.024984 -12.635007 7.220009
Cu -7.220009 -12.635007 5.414998
Cu -5.414998 -14.439982 5.414998
Cu -7.220009 -14.439982 7.220009
Cu -5.414998 -12.635007 7.220009
Cu -3.609987 -12.635007 5.414998
Cu -1.805011 -14.439982 5.414998
Cu -3.609987 -14.439982 7.220009
Cu -1.805011 -12.635007 7.220009
Cu 0.000000 -12.635007 5.414998
Cu 1.805011 -14.439982 5.414998
Cu 0.000000 -14.439982 7.220009
Cu 1.805011 -12.635007 7.220009
Cu 3.609987 -12.635007 5.414998
Cu 3.609987 -14.439982 7.220009
Cu 5.414998 -14.439982 5.414998
Cu 5.414998 -12.635007 7.220009
Cu 7.220009 -12.635007 5.414998
Cu 7.220009 -14.439982 7.220009
Cu 9.024985 -14.439982 5.414998
Cu 9.024985 -12.635007 7.220009
Cu 10.829996 -12.635007 5.414998
Cu 10.829996 -14.439982 7.220009
Cu 12.635007 -14.439982 5.414998
Cu 12.635007 -12.635007 7.220009
Cu 14.439983 -12.635007 5.414998
Cu 14.439983 -14.439982 7.220009
Cu 16.244994 -14.439982 5.414998
Cu 16.244994 -12.635007 7.220009
Cu 18.050005 -12.635007 5.414998
Cu 18.050005 -14.439982 7.220009
Cu -18.050000 -9.024984 5.414998
Cu -16.245001 -10.829996 5.414998
Cu -18.050000 -10.829996 7.220009
Cu -16.245001 -9.024984 7.220009
Cu -14.439982 -9.024984 5.414998
Cu -12.635007 -10.829996 5.414998
Cu -14.439982 -10.829996 7.220009
Cu -12.635007 -9.024984 7.220009
Cu -10.829996 -9.024984 5.414998
Cu -9.024984 -10.829996 5.414998
Cu -10.829996 -10.829996 7.220009
Cu -9.024984 -9.024984 7.220009
Cu -7.220009 -9.024984 5.414998
Cu -5.414998 -10.829996 5.414998
Cu -7.220009 -10.829996 7.220009
Cu -5.414998 -9.024984 7.220009
Cu -3.609987 -9.024984 5.414998
Cu -1.805011 -10.829996 5.414998
Cu -3.609987 -10.829996 7.220009
Cu -1.805011 -9.024984 7.220009
Cu 0.000000 -9.024984 5.414998
Cu 1.805011 -10.829996 5.414998
Cu 0.000000 -10.829996 7.220009
Cu 1.805011 -9.024984 7.220009
Cu 3.609987 -9.024984 5.414998
Cu 3.609987 -10.829996 7.220009
Cu 5.414998 -10.829996 5.414998
Cu 5.414998 -9.024984 7.220009
Cu 7.220009 -9.024984 5.414998
Cu 7.220009 -10.829996 7.220009
Cu 9.024985 -10.829996 5.414998
Cu 9.024985 -9.024984 7.220009
Cu 10.829996 -9.024984 5.414998
Cu 10.829996 -10.829996 7.220009
Cu 12.635007 -10.829996 5.414998
Cu 12.635007 -9.024984 7.220009
Cu 14.439983 -9.024984 5.414998
Cu 14.439983 -10.829996 7.220009
Cu 16.244994 -10.829996 5.414998
Cu 16.244994 -9.024984 7.220009
Cu 18.050005 -9.024984 5.414998
Cu 18.050005 -10.829996 7.220009
Cu -18.050000 -5.414998 5.414998
Cu -16.245001 -7.220009 5.414998
Cu -18.050000 -7.220009 7.220009
Cu -16.245001 -5.414998 7.220009
Cu -14.439982 -5.414998 5.414998
Cu -12.635007 -7.220009 5.414998
Cu -14.439982 -7.220009 7.220009
Cu -12.635007 -5.414998 7.220009
Cu -10.829996 -5.414998 5.414998
Cu -9.024984 -7.220009 5.414998
Cu -10.829996 -7.220009 7.220009
Cu -9.024984 -5.414998 7.220009
Cu -7.220009 -5.414998 5.414998
Cu -5.414998 -7.220009 5.414998
Cu -7.220009 -7.220009 7.220009
Cu -5.414998 -5.414998 7.220009
Cu -3.609987 -5.414998 5.414998
Cu -1.805011 -7.220009 5.414998
Cu -3.609987 -7.220009 7.220009
Cu -1.805011 -5.414998 7.220009
Cu 0.000000 -5.414998 5.414998
Cu 1.805011 -7.220009 5.414998
Cu 0.000000 -7.220009 7.220009
Cu 1.805011 -5.414998 7.220009
Cu 3.609987 -5.414998 5.414998
Cu 3.609987 -7.220009 7.220009
Cu 5.414998 -7.220009 5.414998
Cu 5.414998 -5.414998 7.220009
Cu 7.220009 -5.414998 5.414998
Cu 7.220009 -7.220009 7.220009
Cu 9.024985 -7.220009 5.414998
Cu 9.024985 -5.414998 7.220009
Cu 10.829996 -5.414998 5.414998
Cu 10.829996 -7.220009 7.220009
Cu 12.635007 -7.220009 5.414998
Cu 12.635007 -5.414998 7.220009
Cu 14.439983 -5.414998 5.414998
Cu 14.439983 -7.220009 7.220009
Cu 16.244994 -7.220009 5.414998
Cu 16.244994 -5.414998 7.220009
Cu 18.050005 -5.414998 5.414998
Cu 18.050005 -7.220009 7.220009
Cu -18.050000 -1.805011 5.414998
Cu -16.245001 -3.609987 5.414998
Cu -18.050000 -3.609987 7.220009
Cu -16.245001 -1.805011 7.220009
Cu -14.439982 -1.805011 5.414998
Cu -12.635007 -3.609987 5.414998
Cu -14.439982 -3.609987 7.220009
Cu -12.635007 -1.805011 7.220009
Cu -10.829996 -1.805011 5.414998
Cu -9.024984 -3.609987 5.414998
Cu -10.829996 -3.609987 7.220009
Cu -9.024984 -1.805011 7.220009
Cu -7.220009 -1.805011 5.414998
Cu -5.414998 -3.609987 5.414998
Cu -7.220009 -3.609987 7.220009
Cu -5.414998 -1.805011 7.220009
Cu -3.609987 -1.805011 5.414998
Cu -1.805011 -3.609987 5.414998
Cu -3.609987 -3.609987 7.220009
Cu -1.805011 -1.805011 7.220009
Cu 0.000000 -1.805011 5.414998
Cu 1.805011 -3.609987 5.414998
Cu 0.000000 -3.609987 7.220009
Cu 1.805011 -1.805011 7.220009
Cu 3.609987 -1.805011 5.414998
Cu 3.609987 -3.609987 7.220009
Cu 5.414998 -3.609987 5.414998
Cu 5.414998 -1.805011 7.220009
Cu 7.220009 -1.805011 5.414998
Cu 7.220009 -3.609987 7.220009
Cu 9.024985 -3.609987 5.414998
Cu 9.024985 -1.805011 7.220009
Cu 10.829996 -1.805011 5.414998
Cu 10.829996 -3.609987 7.220009
Cu 12.635007 -3.609987 5.414998
Cu 12.635007 -1.805011 7.220009
Cu 14.439983 -1.805011 5.414998
Cu 14.439983 -3.609987 7.220009
Cu 16.244994 -3.609987 5.414998
Cu 16.244994 -1.805011 7.220009
Cu 18.050005 -1.805011 5.414998
Cu 18.050005 -3.609987 7.220009
Cu -18.050000 1.805011 5.414998
Cu -16.245001 0.000000 5.414998
Cu -18.050000 0.000000 7.220009
Cu -16.245001 1.805011 7.220009
Cu -16.245001 3.609987 5.414998
Cu -18.050000 3.609987 7.220009
Cu -14.439982 1.805011 5.414998
Cu -12.635007 0.000000 5.414998
Cu -14.439982 0.000000 7.220009
Cu -12.635007 1.805011 7.220009
Cu -12.635007 3.609987 5.414998
Cu -14.439982 3.609987 7.220009
Cu -10.829996 1.805011 5.414998
Cu -9.024984 0.000000 5.414998
Cu -10.829996 0.000000 7.220009
Cu -9.024984 1.805011 7.220009
Cu -9.024984 3.609987 5.414998
Cu -10.829996 3.609987 7.220009
Cu -7.220009 1.805011 5.414998
Cu -5.414998 0.000000 5.414998
Cu -7.220009 0.000000 7.220009
Cu -5.414998 1.805011 7.220009
Cu -5.414998 3.609987 5.414998
Cu -7.220009 3.609987 7.220009
Cu -3.609987 1.805011 5.414998
Cu -1.805011 0.000000 5.414998
Cu -3.609987 0.000000 7.220009
Cu -1.805011 1.805011 7.220009
Cu -1.805011 3.609987 5.414998
Cu -3.609987 3.609987 7.220009
Cu 0.000000 1.805011 5.414998
Cu 1.805011 0.000000 5.414998
Cu 0.000000 0.000000 7.220009
Cu 1.805011 1.805011 7.220009
Cu 1.805011 3.609987 5.414998
Cu 0.000000 3.609987 7.220009
Cu 3.609987 1.805011 5.414998
Cu 3.609987 0.000000 7.220009
Cu 3.609987 3.609987 7.220009
Cu 5.414998 0.000000 5.414998
Cu 5.414998 1.805011 7.220009
Cu 5.414998 3.609987 5.414998
Cu 7.220009 1.805011 5.414998
Cu 7.220009 0.000000 7.220009
Cu 7.220009 3.609987 7.220009
Cu 9.024985 0.000000 5.414998
Cu 9.024985 1.805011 7.220009
Cu 9.024985 3.609987 5.414998
Cu 10.829996 1.805011 5.414998
Cu 10.829996 0.000000 7.220009
Cu 10.829996 3.609987 7.220009
Cu 12.635007 0.000000 5.414998
Cu 12.635007 1.805011 7.220009
Cu 12.635007 3.609987 5.414998
Cu 14.439983 1.805011 5.414998
Cu 14.439983 0.000000 7.220009
Cu 14.439983 3.609987 7.220009
Cu 16.244994 0.000000 5.414998
Cu 16.244994 1.805011 7.220009
Cu 16.244994 3.609987 5.414998
Cu 18.050005 1.805011 5.414998
Cu 18.050005 0.000000 7.220009
Cu 18.050005 3.609987 7.220009
Cu -18.050000 5.414998 5.414998
Cu -16.245001 5.414998 7.220009
Cu -16.245001 7.220009 5.414998
Cu -18.050000 7.220009 7.220009
Cu -14.439982 5.414998 5.414998
Cu -12.635007 5.414998 7.220009
Cu -12.635007 7.220009 5.414998
Cu -14.439982 7.220009 7.220009
Cu -10.829996 5.414998 5.414998
Cu -9.024984 5.414998 7.220009
Cu -9.024984 7.220009 5.414998
Cu -10.829996 7.220009 7.220009
Cu -7.220009 5.414998 5.414998
Cu -5.414998 5.414998 7.220009
Cu -5.414998 7.220009 5.414998
Cu -7.220009 7.220009 7.220009
Cu -3.609987 5.414998 5.414998
Cu -1.805011 5.414998 7.220009
Cu -1.805011 7.220009 5.414998
Cu -3.609987 7.220009 7.220009
Cu 0.000000 5.414998 5.414998
Cu 1.805011 5.414998 7.220009
Cu 1.805011 7.220009 5.414998
Cu 0.000000 7.220009 7.220009
Cu 3.609987 5.414998 5.414998
Cu 3.609987 7.220009 7.220009
Cu 5.414998 5.414998 7.220009
Cu 5.414998 7.220009 5.414998
Cu 7.220009 5.414998 5.414998
Cu 7.220009 7.220009 7.220009
Cu 9.024985 5.414998 7.220009
Cu 9.024985 7.220009 5.414998
Cu 10.829996 5.414998 5.414998
Cu 10.829996 7.220009 7.220009
Cu 12.635007 5.414998 7.220009
Cu 12.635007 7.220009 5.414998
Cu 14.439983 5.414998 5.414998
Cu 14.439983 7.220009 7.220009
Cu 16.244994 5.414998 7.220009
Cu 16.244994 7.220009 5.414998
Cu 18.050005 5.414998 5.414998
Cu 18.050005 7.220009 7.220009
Cu -18.050000 9.024985 5.414998
Cu -16.245001 9.024985 7.220009
Cu -16.245001 10.829996 5.414998
Cu -18.050000 10.829996 7.220009
Cu -14.439982 9.024985 5.414998
Cu -12.635007 9.024985 7.220009
Cu -12.635007 10.829996 5.414998
Cu -14.439982 10.829996 7.220009
Cu -10.829996 9.024985 5.414998
Cu -9.024984 9.024985 7.220009
Cu -9.024984 10.829996 5.414998
Cu -10.829996 10.829996 7.220009
Cu -7.220009 9.024985 5.414998
Cu -5.414998 9.024985 7.220009
Cu -5.414998 10.829996 5.414998
Cu -7.220009 10.829996 7.220009
Cu -3.609987 9.024985 5.414998
Cu -1.805011 9.024985 7.220009
Cu -1.805011 10.829996 5.414998
Cu -3.609987 10.829996 7.220009
Cu 0.000000 9.024985 5.414998
Cu 1.805011 9.024985 7.220009
Cu 1.805011 10.829996 5.414998
Cu 0.000000 10.829996 7.220009
Cu 3.609987 9.024985 5.414998
Cu 3.609987 10.829996 7.220009
Cu 5.414998 9.024985 7.220009
Cu 5.414998 10.829996 5.414998
Cu 7.220009 9.024985 5.414998
Cu 7.220009 10.829996 7.220009
Cu 9.024985 9.024985 7.220009
Cu 9.024985 10.829996 5.414998
Cu 10.829996 9.024985 5.414998
Cu 10.829996 10.829996 7.220009
Cu 12.635007 9.024985 7.220009
Cu 12.635007 10.829996 5.414998
Cu 14.439983 9.024985 5.414998
Cu 14.439983 10.829996 7.220009
Cu 16.244994 9.024985 7.220009
Cu 16.244994 10.829996 5.414998
Cu 18.050005 9.024985 5.414998
Cu 18.050005 10.829996 7.220009
Cu -18.050000 12.635007 5.414998
Cu -16.245001 12.635007 7.220009
Cu -16.245001 14.439983 5.414998
Cu -18.050000 14.439983 7.220009
Cu -14.439982 12.635007 5.414998
Cu -12.635007 12.635007 7.220009
Cu -12.635007 14.439983 5.414998
Cu -14.439982 14.439983 7.220009
Cu -10.829996 12.635007 5.414998
Cu -9.024984 12.635007 7.220009
Cu -9.024984 14.439983 5.414998
Cu -10.829996 14.439983 7.220009
Cu -7.220009 12.635007 5.414998
Cu -5.414998 12.635007 7.220009
Cu -5.414998 14.439983 5.414998
Cu -7.220009 14.439983 7.220009
Cu -3.609987 12.635007 5.414998
Cu -1.805011 12.635007 7.220009
Cu -1.805011 14.439983 5.414998
Cu -3.609987 14.439983 7.220009
Cu 0.000000 12.635007 5.414998
Cu 1.805011 12.635007 7.220009
Cu 1.805011 14.439983 5.414998
Cu 0.000000 14.439983 7.220009
Cu 3.609987 12.635007 5.414998
Cu 3.609987 14.439983 7.220009
Cu 5.414998 12.635007 7.220009
Cu 5.414998 14.439983 5.414998
Cu 7.220009 12.635007 5.414998
Cu 7.220009 14.439983 7.220009
Cu 9.024985 12.635007 7.220009
Cu 9.024985 14.439983 5.414998
Cu 10.829996 12.635007 5.414998
Cu 10.829996 14.439983 7.220009
Cu 12.635007 12.635007 7.220009
Cu 12.635007 14.439983 5.414998
Cu 14.439983 12.635007 5.414998
Cu 14.439983 14.439983 7.220009
Cu 16.244994 12.635007 7.220009
Cu 16.244994 14.439983 5.414998
Cu 18.050005 12.635007 5.414998
Cu 18.050005 14.439983 7.220009
Cu -18.050000 16.244994 5.414998
Cu -16.245001 16.244994 7.220009
Cu -16.245001 18.050005 5.414998
Cu -18.050000 18.050005 7.220009
Cu -14.439982 16.244994 5.414998
Cu -12.635007 16.244994 7.220009
Cu -12.635007 18.050005 5.414998
Cu -14.439982 18.050005 7.220009
Cu -10.829996 16.244994 5.414998
Cu -9.024984 16.244994 7.220009
Cu -9.024984 18.050005 5.414998
Cu -10.829996 18.050005 7.220009
Cu -7.220009 16.244994 5.414998
Cu -5.414998 16.244994 7.220009
Cu -5.414998 18.050005 5.414998
Cu -7.220009 18.050005 7.220009
Cu -3.609987 16.244994 5.414998
Cu -1.805011 16.244994 7.220009
Cu -1.805011 18.050005 5.414998
Cu -3.609987 18.050005 7.220009
Cu 0.000000 16.244994 5.414998
Cu 1.805011 16.244994 7.220009
Cu 1.805011 18.050005 5.414998
Cu 0.000000 18.050005 7.220009
Cu 3.609987 16.244994 5.414998
Cu 3.609987 18.050005 7.220009
Cu 5.414998 16.244994 7.220009
Cu 5.414998 18.050005 5.414998
Cu 7.220009 16.244994 5.414998
Cu 7.220009 18.050005 7.220009
Cu 9.024985 16.244994 7.220009
Cu 9.024985 18.050005 5.414998
Cu 10.829996 16.244994 5.414998
Cu 10.829996 18.050005 7.220009
Cu 12.635007 16.244994 7.220009
Cu 12.635007 18.050005 5.414998
Cu 14.439983 16.244994 5.414998
Cu 14.439983 18.050005 7.220009
Cu 16.244994 16.244994 7.220009
Cu 16.244994 18.050005 5.414998
Cu 18.050005 16.244994 5.414998
Cu 18.050005 18.050005 7.220009
Cu -18.050000 -16.245001 9.024985
Cu -16.245001 -18.050000 9.024985
Cu -18.050000 -18.050000 10.829996
Cu -16.245001 -16.245001 10.829996
Cu -14.439982 -16.245001 9.024985
Cu -12.635007 -18.050000 9.024985
Cu -14.439982 -18.050000 10.829996
Cu -12.635007 -16.245001 10.829996
Cu -10.829996 -16.245001 9.024985
Cu -9.024984 -18.050000 9.024985
Cu -10.829996 -18.050000 10.829996
Cu -9.024984 -16.245001 10.829996
Cu -7.220009 -16.245001 9.024985
Cu -5.414998 -18.050000 9.024985
Cu -7.220009 -18.050000 10.829996
Cu -5.414998 -16.245001 10.829996
Cu -3.609987 -16.245001 9.024985
Cu -1.805011 -18.050000 9.024985
Cu -3.609987 -18.050000 10.829996
Cu -1.805011 -16.245001 10.829996
Cu 0.000000 -16.245001 9.024985
Cu 1.805011 -18.050000 9.024985
Cu 0.000000 -18.050000 10.829996
Cu 1.805011 -16.245001 10.829996
Cu 3.609987 -16.245001 9.024985
Cu 3.609987 -18.050000 10.829996
Cu 5.414998 -18.050000 9.024985
Cu 5.414998 -16.245001 10.829996
Cu 7.220009 -16.245001 9.024985
Cu 7.220009 -18.050000 10.829996
Cu 9.024985 -18.050000 9.024985
Cu 9.024985 -16.245001 10.829996
Cu 10.829996 -16.245001 9.024985
Cu 10.829996 -18.050000 10.829996
Cu 12.635007 -18.050000 9.024985
Cu 12.635007 -16.245001 10.829996
Cu 14.439983 -16.245001 9.024985
Cu 14.439983 -18.050000 10.829996
Cu 16.244994 -18.050000 9.024985
Cu 16.244994 -16.245001 10.829996
Cu 18.050005 -16.245001 9.024985
Cu 18.050005 -18.050000 10.829996
Cu -18.050000 -12.635007 9.024985
Cu -16.245001 -14.439982 9.024985
Cu -18.050000 -14.439982 10.829996
Cu -16.245001 -12.635007 10.829996
Cu -14.439982 -12.635007 9.024985
Cu -12.635007 -14.439982 9.024985
Cu -14.439982 -14.439982 10.829996
Cu -12.635007 -12.635007 10.829996
Cu -10.829996 -12.635007 9.024985
Cu -9.024984 -14.439982 9.024985
Cu -10.829996 -14.439982 10.829996
Cu -9.024984 -12.635007 10.829996
Cu -7.220009 -12.635007 9.024985
Cu -5.414998 -14.439982 9.024985
Cu -7.220009 -14.439982 10.829996
Cu -5.414998 -12.635007 10.829996
Cu -3.609987 -12.635007 9.024985
Cu -1.805011 -14.439982 9.024985
Cu -3.609987 -14.439982 10.829996
Cu -1.805011 -12.635007 10.829996
Cu 0.000000 -12.635007 9.024985
Cu 1.805011 -14.439982 9.024985
Cu 0.000000 -14.439982 10.829996
Cu 1.805011 -12.635007 10.829996
Cu 3.609987 -12.635007 9.024985
Cu 3.609987 -14.439982 10.829996
Cu 5.414998 -14.439982 9.024985
Cu 5.414998 -12.635007 10.829996
Cu 7.220009 -12.635007 9.024985
Cu 7.220009 -14.439982 10.829996
Cu 9.024985 -14.439982 9.024985
Cu 9.024985 -12.635007 10.829996
Cu 10.829996 -12.635007 9.024985
Cu 10.829996 -14.439982 10.829996
Cu 12.635007 -14.439982 9.024985
Cu 12.635007 -12.635007 10.829996
Cu 14.439983 -12.635007 9.024985
Cu 14.439983 -14.439982 10.829996
Cu 16.244994 -14.439982 9.024985
Cu 16.244994 -12.635007 10.829996
Cu 18.050005 -12.635007 9.024985
Cu 18.050005 -14.439982 10.829996
Cu -18.050000 -9.024984 9.024985
Cu -16.245001 -10.829996 9.024985
Cu -18.050000 -10.829996 10.829996
Cu -16.245001 -9.024984 10.829996
Cu -14.439982 -9.024984 9.024985
Cu -12.635007 -10.829996 9.024985
Cu -14.439982 -10.829996 10.829996
Cu -12.635007 -9.024984 10.829996
Cu -10.829996 -9.024984 9.024985
Cu -9.024984 -10.829996 9.024985
Cu -10.829996 -10.829996 10.829996
Cu -9.024984 -9.024984 10.829996
Cu -7.220009 -9.024984 9.024985
Cu -5.414998 -10.829996 9.024985
Cu -7.220009 -10.829996 10.829996
Cu -5.414998 -9.024984 10.829996
Cu -3.609987 -9.024984 9.024985
Cu -1.805011 -10.829996 9.024985
Cu -3.609987 -10.829996 10.829996
Cu -1.805011 -9.024984 10.829996
Cu 0.000000 -9.024984 9.024985
Cu 1.805011 -10.829996 9.024985
Cu 0.000000 -10.829996 10.829996
Cu 1.805011 -9.024984 10.829996
Cu 3.609987 -9.024984 9.024985
Cu 3.609987 -10.829996 10.829996
Cu 5.414998 -10.829996 9.024985
Cu 5.414998 -9.024984 10.829996
Cu 7.220009 -9.024984 9.024985
Cu 7.220009 -10.829996 10.829996
Cu 9.024985 -10.829996 9.024985
Cu 9.024985 -9.024984 10.829996
Cu 10.829996 -9.024984 9.024985
Cu 10.829996 -10.829996 10.829996
Cu 12.635007 -10.829996 9.024985
Cu 12.635007 -9.024984 10.829996
Cu 14.439983 -9.024984 9.024985
Cu 14.439983 -10.829996 10.829996
Cu 16.244994 -10.829996 9.024985
Cu 16.244994 -9.024984 10.829996
Cu 18.050005 -9.024984 9.024985
Cu 18.050005 -10.829996 10.829996
Cu -18.050000 -5.414998 9.024985
Cu -16.245001 -7.220009 9.024985
Cu -18.050000 -7.220009 10.829996
Cu -16.245001 -5.414998 10.829996
Cu -14.439982 -5.414998 9.024985
Cu -12.635007 -7.220009 9.024985
Cu -14.439982 -7.220009 10.829996
Cu -12.635007 -5.414998 10.829996
Cu -10.829996 -5.414998 9.024985
Cu -9.024984 -7.220009 9.024985
Cu -10.829996 -7.220009 10.829996
Cu -9.024984 -5.414998 10.829996
Cu -7.220009 -5.414998 9.024985
Cu -5.414998 -7.220009 9.024985
Cu -7.220009 -7.220009 10.829996
Cu -5.414998 -5.414998 10.829996
Cu -3.609987 -5.414998 9.024985
Cu -1.805011 -7.220009 9.024985
Cu -3.609987 -7.220009 10.829996
Cu -1.805011 -5.414998 10.829996
Cu 0.000000 -5.414998 9.024985
Cu 1.805011 -7.220009 9.024985
Cu 0.000000 -7.220009 10.829996
Cu 1.805011 -5.414998 10.829996
Cu 3.609987 -5.414998 9.024985
Cu 3.609987 -7.220009 10.829996
Cu 5.414998 -7.220009 9.024985
Cu 5.414998 -5.414998 10.829996
Cu 7.220009 -5.414998 9.024985
Cu 7.220009 -7.220009 10.829996
Cu 9.024985 -7.220009 9.024985
Cu 9.024985 -5.414998 10.829996
Cu 10.829996 -5.414998 9.024985
Cu 10.829996 -7.220009 10.829996
Cu 12.635007 -7.220009 9.024985
Cu 12.635007 -5.414998 10.829996
Cu 14.439983 -5.414998 9.024985
Cu 14.439983 -7.220009 10.829996
Cu 16.244994 -7.220009 9.024985
Cu 16.244994 -5.414998 10.829996
Cu 18.050005 -5.414998 9.024985
Cu 18.050005 -7.220009 10.829996
Cu -18.050000 -1.805011 9.024985
Cu -16.245001 -3.609987 9.024985
Cu -18.050000 -3.609987 10.829996
Cu -16.245001 -1.805011 10.829996
Cu -14.439982 -1.805011 9.024985
Cu -12.635007 -3.609987 9.024985
Cu -14.439982 -3.609987 10.829996
Cu -12.635007 -1.805011 10.829996
Cu -10.829996 -1.805011 9.024985
Cu -9.024984 -3.609987 9.024985
Cu -10.829996 -3.609987 10.829996
Cu -9.024984 -1.805011 10.829996
Cu -7.220009 -1.805011 9.024985
Cu -5.414998 -3.609987 9.024985
Cu -7.220009 -3.609987 10.829996
Cu -5.414998 -1.805011 10.829996
Cu -3.609987 -1.805011 9.024985
Cu -1.805011 -3.609987 9.024985
Cu -3.609987 -3.609987 10.829996
Cu -1.805011 -1.805011 10.829996
Cu 0.000000 -1.805011 9.024985
Cu 1.805011 -3.609987 9.024985
Cu 0.000000 -3.609987 10.829996
Cu 1.805011 -1.805011 10.829996
Cu 3.609987 -1.805011 9.024985
Cu 3.609987 -3.609987 10.829996
Cu 5.414998 -3.609987 9.024985
Cu 5.414998 -1.805011 10.829996
Cu 7.220009 -1.805011 9.024985
Cu 7.220009 -3.609987 10.829996
Cu 9.024985 -3.609987 9.024985
Cu 9.024985 -1.805011 10.829996
Cu 10.829996 -1.805011 9.024985
Cu 10.829996 -3.609987 10.829996
Cu 12.635007 -3.609987 9.024985
Cu 12.635007 -1.805011 10.829996
Cu 14.439983 -1.805011 9.024985
Cu 14.439983 -3.609987 10.829996
Cu 16.244994 -3.609987 9.024985
Cu 16.244994 -1.805011 10.829996
Cu 18.050005 -1.805011 9.024985
Cu 18.050005 -3.609987 10.829996
Cu -18.050000 1.805011 9.024985
Cu -16.245001 0.000000 9.024985
Cu -18.050000 0.000000 10.829996
Cu -16.245001 1.805011 10.829996
Cu -16.245001 3.609987 9.024985
Cu -18.050000 3.609987 10.829996
Cu -14.439982 1.805011 9.024985
Cu -12.635007 0.000000 9.024985
Cu -14.439982 0.000000 10.829996
Cu -12.635007 1.805011 10.829996
Cu -12.635007 3.609987 9.024985
Cu -14.439982 3.609987 10.829996
Cu -10.829996 1.805011 9.024985
Cu -9.024984 0.000000 9.024985
Cu -10.829996 0.000000 10.829996
Cu -9.024984 1.805011 10.829996
Cu -9.024984 3.609987 9.024985
Cu -10.829996 3.609987 10.829996
Cu -7.220009 1.805011 9.024985
Cu -5.414998 0.000000 9.024985
Cu -7.220009 0.000000 10.829996
Cu -5.414998 1.805011 10.829996
Cu -5.414998 3.609987 9.024985
Cu -7.220009 3.609987 10.829996
Cu -3.609987 1.805011 9.024985
Cu -1.805011 0.000000 9.024985
Cu -3.609987 0.000000 10.829996
Cu -1.805011 1.805011 10.829996
Cu -1.805011 3.609987 9.024985
Cu -3.609987 3.609987 10.829996
Cu 0.000000 1.805011 9.024985
Cu 1.805011 0.000000 9.024985
Cu 0.000000 0.000000 10.829996
Cu 1.805011 1.805011 10.829996
Cu 1.805011 3.609987 9.024985
Cu 0.000000 3.609987 10.829996
Cu 3.609987 1.805011 9.024985
Cu 3.609987 0.000000 10.829996
Cu 3.609987 3.609987 10.829996
Cu 5.414998 0.000000 9.024985
Cu 5.414998 1.805011 10.829996
Cu 5.414998 3.609987 9.024985
Cu 7.220009 1.805011 9.024985
Cu 7.220009 0.000000 10.829996
Cu 7.220009 3.609987 10.829996
Cu 9.024985 0.000000 9.024985
Cu 9.024985 1.805011 10.829996
Cu 9.024985 3.609987 9.024985
Cu 10.829996 1.805011 9.024985
Cu 10.829996 0.000000 10.829996
Cu 10.829996 3.609987 10.829996
Cu 12.635007 0.000000 9.024985
Cu 12.635007 1.805011 10.829996
Cu 12.635007 3.609987 9.024985
Cu 14.439983 1.805011 9.024985
Cu 14.439983 0.000000 10.829996
Cu 14.439983 3.609987 10.829996
Cu 16.244994 0.000000 9.024985
Cu 16.244994 1.805011 10.829996
Cu 16.244994 3.609987 9.024985
Cu 18.050005 1.805011 9.024985
Cu 18.050005 0.000000 10.829996
Cu 18.050005 3.609987 10.829996
Cu -18.050000 5.414998 9.024985
Cu -16.245001 5.414998 10.829996
Cu -16.245001 7.220009 9.024985
Cu -18.050000 7.220009 10.829996
Cu -14.439982 5.414998 9.024985
Cu -12.635007 5.414998 10.829996
Cu -12.635007 7.220009 9.024985
Cu -14.439982 7.220009 10.829996
Cu -10.829996 5.414998 9.024985
Cu -9.024984 5.414998 10.829996
Cu -9.024984 7.220009 9.024985
Cu -10.829996 7.220009 10.829996
Cu -7.220009 5.414998 9.024985
Cu -5.414998 5.414998 10.829996
Cu -5.414998 7.220009 9.024985
Cu -7.220009 7.220009 10.829996
Cu -3.609987 5.414998 9.024985
Cu -1.805011 5.414998 10.829996
Cu -1.805011 7.220009 9.024985
Cu -3.609987 7.220009 10.829996
Cu 0.000000 5.414998 9.024985
Cu 1.805011 5.414998 10.829996
Cu 1.805011 7.220009 9.024985
Cu 0.000000 7.220009 10.829996
Cu 3.609987 5.414998 9.024985
Cu 3.609987 7.220009 10.829996
Cu 5.414998 5.414998 10.829996
Cu 5.414998 7.220009 9.024985
Cu 7.220009 5.414998 9.024985
Cu 7.220009 7.220009 10.829996
Cu 9.024985 5.414998 10.829996
Cu 9.024985 7.220009 9.024985
Cu 10.829996 5.414998 9.024985
Cu 10.829996 7.220009 10.829996
Cu 12.635007 5.414998 10.829996
Cu 12.635007 7.220009 9.024985
Cu 14.439983 5.414998 9.024985
Cu 14.439983 7.220009 10.829996
Cu 16.244994 5.414998 10.829996
Cu 16.244994 7.220009 9.024985
Cu 18.050005 5.414998 9.024985
Cu 18.050005 7.220009 10.829996
Cu -18.050000 9.024985 9.024985
Cu -16.245001 9.024985 10.829996
Cu -16.245001 10.829996 9.024985
Cu -18.050000 10.829996 10.829996
Cu -14.439982 9.024985 9.024985
Cu -12.635007 9.024985 10.829996
Cu -12.635007 10.829996 9.024985
Cu -14.439982 10.829996 10.829996
Cu -10.829996 9.024985 9.024985
Cu -9.024984 9.024985 10.829996
Cu -9.024984 10.829996 9.024985
Cu -10.829996 10.829996 10.829996
Cu -7.220009 9.024985 9.024985
Cu -5.414998 9.024985 10.829996
Cu -5.414998 10.829996 9.024985
Cu -7.220009 10.829996 10.829996
Cu -3.609987 9.024985 9.024985
Cu -1.805011 9.024985 10.829996
Cu -1.805011 10.829996 9.024985
Cu -3.609987 10.829996 10.829996
Cu 0.000000 9.024985 9.024985
Cu 1.805011 9.024985 10.829996
Cu 1.805011 10.829996 9.024985
Cu 0.000000 10.829996 10.829996
Cu 3.609987 9.024985 9.024985
Cu 3.609987 10.829996 10.829996
Cu 5.414998 9.024985 10.829996
Cu 5.414998 10.829996 9.024985
Cu 7.220009 9.024985 9.024985
Cu 7.220009 10.829996 10.829996
Cu 9.024985 9.024985 10.829996
Cu 9.024985 10.829996 9.024985
Cu 10.829996 9.024985 9.024985
Cu 10.829996 10.829996 10.829996
Cu 12.635007 9.024985 10.829996
Cu 12.635007 10.829996 9.024985
Cu 14.439983 9.024985 9.024985
Cu 14.439983 10.829996 10.829996
Cu 16.244994 9.024985 10.829996
Cu 16.244994 10.829996 9.024985
Cu 18.050005 9.024985 9.024985
Cu 18.050005 10.829996 10.829996
Cu -18.050000 12.635007 9.024985
Cu -16.245001 12.635007 10.829996
Cu -16.245001 14.439983 9.024985
Cu -18.050000 14.439983 10.829996
Cu -14.439982 12.635007 9.024985
Cu -12.635007 12.635007 10.829996
Cu -12.635007 14.439983 9.024985
Cu -14.439982 14.439983 10.829996
Cu -10.829996 12.635007 9.024985
Cu -9.024984 12.635007 10.829996
Cu -9.024984 14.439983 9.024985
Cu -10.829996 14.439983 10.829996
Cu -7.220009 12.635007 9.024985
Cu -5.414998 12.635007 10.829996
Cu -5.414998 14.439983 9.024985
Cu -7.220009 14.439983 10.829996
Cu -3.609987 12.635007 9.024985
Cu -1.805011 12.635007 10.829996
Cu -1.805011 14.439983 9.024985
Cu -3.609987 14.439983 10.829996
Cu 0.000000 12.635007 9.024985
Cu 1.805011 12.635007 10.829996
Cu 1.805011 14.439983 9.024985
Cu 0.000000 14.439983 10.829996
Cu 3.609987 12.635007 9.024985
Cu 3.609987 14.439983 10.829996
Cu 5.414998 12.635007 10.829996
Cu 5.414998 14.439983 9.024985
Cu 7.220009 12.635007 9.024985
Cu 7.220009 14.439983 10.829996
Cu 9.024985 12.635007 10.829996
Cu 9.024985 14.439983 9.024985
Cu 10.829996 12.635007 9.024985
Cu 10.829996 14.439983 10.829996
Cu 12.635007 12.635007 10.829996
Cu 12.635007 14.439983 9.024985
Cu 14.439983 12.635007 9.024985
Cu 14.439983 14.439983 10.829996
Cu 16.244994 12.635007 10.829996
Cu 16.244994 14.439983 9.024985
Cu 18.050005 12.635007 9.024985
Cu 18.050005 14.439983 10.829996
Cu -18.050000 16.244994 9.024985
Cu -16.245001 16.244994 10.829996
Cu -16.245001 18.050005 9.024985
Cu -18.050000 18.050005 10.829996
Cu -14.439982 16.244994 9.024985
Cu -12.635007 16.244994 10.829996
Cu -12.635007 18.050005 9.024985
Cu -14.439982 18.050005 10.829996
Cu -10.829996 16.244994 9.024985
Cu -9.024984 16.244994 10.829996
Cu -9.024984 18.050005 9.024985
Cu -10.829996 18.050005 10.829996
Cu -7.220009 16.244994 9.024985
Cu -5.414998 16.244994 10.829996
Cu -5.414998 18.050005 9.024985
Cu -7.220009 18.050005 10.829996
Cu -3.609987 16.244994 9.024985
Cu -1.805011 16.244994 10.829996
Cu -1.805011 18.050005 9.024985
Cu -3.609987 18.050005 10.829996
Cu 0.000000 16.244994 9.024985
Cu 1.805011 16.244994 10.829996
Cu 1.805011 18.050005 9.024985
Cu 0.000000 18.050005 10.829996
Cu 3.609987 16.244994 9.024985
Cu 3.609987 18.050005 10.829996
Cu 5.414998 16.244994 10.829996
Cu 5.414998 18.050005 9.024985
Cu 7.220009 16.244994 9.024985
Cu 7.220009 18.050005 10.829996
Cu 9.024985 16.244994 10.829996
Cu 9.024985 18.050005 9.024985
Cu 10.829996 16.244994 9.024985
Cu 10.829996 18.050005 10.829996
Cu 12.635007 16.244994 10.829996
Cu 12.635007 18.050005 9.024985
Cu 14.439983 16.244994 9.024985
Cu 14.439983 18.050005 10.829996
Cu 16.244994 16.244994 10.829996
Cu 16.244994 18.050005 9.024985
Cu 18.050005 16.244994 9.024985
Cu 18.050005 18.050005 10.829996
Cu -18.050000 -16.245001 12.635007
Cu -16.245001 -18.050000 12.635007
Cu -18.050000 -18.050000 14.439983
Cu -16.245001 -16.245001 14.439983
Cu -14.439982 -16.245001 12.635007
Cu -12.635007 -18.050000 12.635007
Cu -14.439982 -18.050000 14.439983
Cu -12.635007 -16.245001 14.439983
Cu -10.829996 -16.245001 12.635007
Cu -9.024984 -18.050000 12.635007
Cu -10.829996 -18.050000 14.439983
Cu -9.024984 -16.245001 14.439983
Cu -7.220009 -16.245001 12.635007
Cu -5.414998 -18.050000 12.635007
Cu -7.220009 -18.050000 14.439983
Cu -5.414998 -16.245001 14.439983
Cu -3.609987 -16.245001 12.635007
Cu -1.805011 -18.050000 12.635007
Cu -3.609987 -18.050000 14.439983
Cu -1.805011 -16.245001 14.439983
Cu 0.000000 -16.245001 12.635007
Cu 1.805011 -18.050000 12.635007
Cu 0.000000 -18.050000 14.439983
Cu 1.805011 -16.245001 14.439983
Cu 3.609987 -16.245001 12.635007
Cu 3.609987 -18.050000 14.439983
Cu 5.414998 -18.050000 12.635007
Cu 5.414998 -16.245001 14.439983
Cu 7.220009 -16.245001 12.635007
Cu 7.220009 -18.050000 14.439983
Cu 9.024985 -18.050000 12.635007
Cu 9.024985 -16.245001 14.439983
Cu 10.829996 -16.245001 12.635007
Cu 10.829996 -18.050000 14.439983
Cu 12.635007 -18.050000 12.635007
Cu 12.635007 -16.245001 14.439983
Cu 14.439983 -16.245001 12.635007
Cu 14.439983 -18.050000 14.439983
Cu 16.244994 -18.050000 12.635007
Cu 16.244994 -16.245001 14.439983
Cu 18.050005 -16.245001 12.635007
Cu 18.050005 -18.050000 14.439983
Cu -18.050000 -12.635007 12.635007
Cu -16.245001 -14.439982 12.635007
Cu -18.050000 -14.439982 14.439983
Cu -16.245001 -12.635007 14.439983
Cu -14.439982 -12.635007 12.635007
Cu -12.635007 -14.439982 12.635007
Cu -14.439982 -14.439982 14.439983
Cu -12.635007 -12.635007 14.439983
Cu -10.829996 -12.635007 12.635007
Cu -9.024984 -14.439982 12.635007
Cu -10.829996 -14.439982 14.439983
Cu -9.024984 -12.635007 14.439983
Cu -7.220009 -12.635007 12.635007
Cu -5.414998 -14.439982 12.635007
Cu -7.220009 -14.439982 14.439983
Cu -5.414998 -12.635007 14.439983
Cu -3.609987 -12.635007 12.635007
Cu -1.805011 -14.439982 12.635007
Cu -3.609987 -14.439982 14.439983
Cu -1.805011 -12.635007 14.439983
Cu 0.000000 -12.635007 12.635007
Cu 1.805011 -14.439982 12.635007
Cu 0.000000 -14.439982 14.439983
Cu 1.805011 -12.635007 14.439983
Cu 3.609987 -12.635007 12.635007
Cu 3.609987 -14.439982 14.439983
Cu 5.414998 -14.439982 12.635007
Cu 5.414998 -12.635007 14.439983
Cu 7.220009 -12.635007 12.635007
Cu 7.220009 -14.439982 14.439983
Cu 9.024985 -14.439982 12.635007
Cu 9.024985 -12.635007 14.439983
Cu 10.829996 -12.635007 12.635007
Cu 10.829996 -14.439982 14.439983
Cu 12.635007 -14.439982 12.635007
Cu 12.635007 -12.635007 14.439983
Cu 14.439983 -12.635007 12.635007
Cu 14.439983 -14.439982 14.439983
Cu 16.244994 -14.439982 12.635007
Cu 16.244994 -12.635007 14.439983
Cu 18.050005 -12.635007 12.635007
Cu 18.050005 -14.439982 14.439983
Cu -18.050000 -9.024984 12.635007
Cu -16.245001 -10.829996 12.635007
Cu -18.050000 -10.829996 14.439983
Cu -16.245001 -9.024984 14.439983
Cu -14.439982 -9.024984 12.635007
Cu -12.635007 -10.829996 12.635007
Cu -14.439982 -10.829996 14.439983
Cu -12.635007 -9.024984 14.439983
Cu -10.829996 -9.024984 12.635007
Cu -9.024984 -10.829996 12.635007
Cu -10.829996 -10.829996 14.439983
Cu -9.024984 -9.024984 14.439983
Cu -7.220009 -9.024984 12.635007
Cu -5.414998 -10.829996 12.635007
Cu -7.220009 -10.829996 14.439983
Cu -5.414998 -9.024984 14.439983
Cu -3.609987 -9.024984 12.635007
Cu -1.805011 -10.829996 12.635007
Cu -3.609987 -10.829996 14.439983
Cu -1.805011 -9.024984 14.439983
Cu 0.000000 -9.024984 12.635007
Cu 1.805011 -10.829996 12.635007
Cu 0.000000 -10.829996 14.439983
Cu 1.805011 -9.024984 14.439983
Cu 3.609987 -9.024984 12.635007
Cu 3.609987 -10.829996 14.439983
Cu 5.414998 -10.829996 12.635007
Cu 5.414998 -9.024984 14.439983
Cu 7.220009 -9.024984 12.635007
Cu 7.220009 -10.829996 14.439983
Cu 9.024985 -10.829996 12.635007
Cu 9.024985 -9.024984 14.439983
Cu 10.829996 -9.024984 12.635007
Cu 10.829996 -10.829996 14.439983
Cu 12.635007 -10.829996 12.635007
Cu 12.635007 -9.024984 14.439983
Cu 14.439983 -9.024984 12.635007
Cu 14.439983 -10.829996 14.439983
Cu 16.244994 -10.829996 12.635007
Cu 16.244994 -9.024984 14.439983
Cu 18.050005 -9.024984 12.635007
Cu 18.050005 -10.829996 14.439983
Cu -18.050000 -5.414998 12.635007
Cu -16.245001 -7.220009 12.635007
Cu -18.050000 -7.220009 14.439983
Cu -16.245001 -5.414998 14.439983
Cu -14.439982 -5.414998 12.635007
Cu -12.635007 -7.220009 12.635007
Cu -14.439982 -7.220009 14.439983
Cu -12.635007 -5.414998 14.439983
Cu -10.829996 -5.414998 12.635007
Cu -9.024984 -7.220009 12.635007
Cu -10.829996 -7.220009 14.439983
Cu -9.024984 -5.414998 14.439983
Cu -7.220009 -5.414998 12.635007
Cu -5.414998 -7.220009 12.635007
Cu -7.220009 -7.220009 14.439983
Cu -5.414998 -5.414998 14.439983
Cu -3.609987 -5.414998 12.635007
Cu -1.805011 -7.220009 12.635007
Cu -3.609987 -7.220009 14.439983
Cu -1.805011 -5.414998 14.439983
Cu 0.000000 -5.414998 12.635007
Cu 1.805011 -7.220009 12.635007
Cu 0.000000 -7.220009 14.439983
Cu 1.805011 -5.414998 14.439983
Cu 3.609987 -5.414998 12.635007
Cu 3.609987 -7.220009 14.439983
Cu 5.414998 -7.220009 12.635007
Cu 5.414998 -5.414998 14.439983
Cu 7.220009 -5.414998 12.635007
Cu 7.220009 -7.220009 14.439983
Cu 9.024985 -7.220009 12.635007
Cu 9.024985 -5.414998 14.439983
Cu 10.829996 -5.414998 12.635007
Cu 10.829996 -7.220009 14.439983
Cu 12.635007 -7.220009 12.635007
Cu 12.635007 -5.414998 14.439983
Cu 14.439983 -5.414998 12.635007
Cu 14.439983 -7.220009 14.439983
Cu 16.244994 -7.220009 12.635007
Cu 16.244994 -5.414998 14.439983
Cu 18.050005 -5.414998 12.635007
Cu 18.050005 -7.220009 14.439983
Cu -18.050000 -1.805011 12.635007
Cu -16.245001 -3.609987 12.635007
Cu -18.050000 -3.609987 14.439983
Cu -16.245001 -1.805011 14.439983
Cu -14.439982 -1.805011 12.635007
Cu -12.635007 -3.609987 12.635007
Cu -14.439982 -3.609987 14.439983
Cu -12.635007 -1.805011 14.439983
Cu -10.829996 -1.805011 12.635007
Cu -9.024984 -3.609987 12.635007
Cu -10.829996 -3.609987 14.439983
Cu -9.024984 -1.805011 14.439983
Cu -7.220009 -1.805011 12.635007
Cu -5.414998 -3.609987 12.635007
Cu -7.220009 -3.609987 14.439983
Cu -5.414998 -1.805011 14.439983
Cu -3.609987 -1.805011 12.635007
Cu -1.805011 -3.609987 12.635007
Cu -3.609987 -3.609987 14.439983
Cu -1.805011 -1.805011 14.439983
Cu 0.000000 -1.805011 12.635007
Cu 1.805011 -3.609987 12.635007
Cu 0.000000 -3.609987 14.439983
Cu 1.805011 -1.805011 14.439983
Cu 3.609987 -1.805011 12.635007
Cu 3.609987 -3.609987 14.439983
Cu 5.414998 -3.609987 12.635007
Cu 5.414998 -1.805011 14.439983
Cu 7.220009 -1.805011 12.635007
Cu 7.220009 -3.609987 14.439983
Cu 9.024985 -3.609987 12.635007
Cu 9.024985 -1.805011 14.439983
Cu 10.829996 -1.805011 12.635007
Cu 10.829996 -3.609987 14.439983
Cu 12.635007 -3.609987 12.635007
Cu 12.635007 -1.805011 14.439983
Cu 14.439983 -1.805011 12.635007
Cu 14.439983 -3.609987 14.439983
Cu 16.244994 -3.609987 12.635007
Cu 16.244994 -1.805011 14.439983
Cu 18.050005 -1.805011 12.635007
Cu 18.050005 -3.609987 14.439983
Cu -18.050000 1.805011 12.635007
Cu -16.245001 0.000000 12.635007
Cu -18.050000 0.000000 14.439983
Cu -16.245001 1.805011 14.439983
Cu -16.245001 3.609987 12.635007
Cu -18.050000 3.609987 14.439983
Cu -14.439982 1.805011 12.635007
Cu -12.635007 0.000000 12.635007
Cu -14.439982 0.000000 14.439983
Cu -12.635007 1.805011 14.439983
Cu -12.635007 3.609987 12.635007
Cu -14.439982 3.609987 14.439983
Cu -10.829996 1.805011 12.635007
Cu -9.024984 0.000000 12.635007
Cu -10.829996 0.000000 14.439983
Cu -9.024984 1.805011 14.439983
Cu -9.024984 3.609987 12.635007
Cu -10.829996 3.609987 14.439983
Cu -7.220009 1.805011 12.635007
Cu -5.414998 0.000000 12.635007
Cu -7.220009 0.000000 14.439983
Cu -5.414998 1.805011 14.439983
Cu -5.414998 3.609987 12.635007
Cu -7.220009 3.609987 14.439983
Cu -3.609987 1.805011 12.635007
Cu -1.805011 0.000000 12.635007
Cu -3.609987 0.000000 14.439983
Cu -1.805011 1.805011 14.439983
Cu -1.805011 3.609987 12.635007
Cu -3.609987 3.609987 14.439983
Cu 0.000000 1.805011 12.635007
Cu 1.805011 0.000000 12.635007
Cu 0.000000 0.000000 14.439983
Cu 1.805011 1.805011 14.439983
Cu 1.805011 3.609987 12.635007
Cu 0.000000 3.609987 14.439983
Cu 3.609987 1.805011 12.635007
Cu 3.609987 0.000000 14.439983
Cu 3.609987 3.609987 14.439983
Cu 5.414998 0.000000 12.635007
Cu 5.414998 1.805011 14.439983
Cu 5.414998 3.609987 12.635007
Cu 7.220009 1.805011 12.635007
Cu 7.220009 0.000000 14.439983
Cu 7.220009 3.609987 14.439983
Cu 9.024985 0.000000 12.635007
Cu 9.024985 1.805011 14.439983
Cu 9.024985 3.609987 12.635007
Cu 10.829996 1.805011 12.635007
Cu 10.829996 0.000000 14.439983
Cu 10.829996 3.609987 14.439983
Cu 12.635007 0.000000 12.635007
Cu 12.635007 1.805011 14.439983
Cu 12.635007 3.609987 12.635007
Cu 14.439983 1.805011 12.635007
Cu 14.439983 0.000000 14.439983
Cu 14.439983 3.609987 14.439983
Cu 16.244994 0.000000 12.635007
Cu 16.244994 1.805011 14.439983
Cu 16.244994 3.609987 12.635007
Cu 18.050005 1.805011 12.635007
Cu 18.050005 0.000000 14.439983
Cu 18.050005 3.609987 14.439983
Cu -18.050000 5.414998 12.635007
Cu -16.245001 5.414998 14.439983
Cu -16.245001 7.220009 12.635007
Cu -18.050000 7.220009 14.439983
Cu -14.439982 5.414998 12.635007
Cu -12.635007 5.414998 14.439983
Cu -12.635007 7.220009 12.635007
Cu -14.439982 7.220009 14.439983
Cu -10.829996 5.414998 12.635007
Cu -9.024984 5.414998 14.439983
Cu -9.024984 7.220009 12.635007
Cu -10.829996 7.220009 14.439983
Cu -7.220009 5.414998 12.635007
Cu -5.414998 5.414998 14.439983
Cu -5.414998 7.220009 12.635007
Cu -7.220009 7.220009 14.439983
Cu -3.609987 5.414998 12.635007
Cu -1.805011 5.414998 14.439983
Cu -1.805011 7.220009 12.635007
Cu -3.609987 7.220009 14.439983
Cu 0.000000 5.414998 12.635007
Cu 1.805011 5.414998 14.439983
Cu 1.805011 7.220009 12.635007
Cu 0.000000 7.220009 14.439983
Cu 3.609987 5.414998 12.635007
Cu 3.609987 7.220009 14.439983
Cu 5.414998 5.414998 14.439983
Cu 5.414998 7.220009 12.635007
Cu 7.220009 5.414998 12.635007
Cu 7.220009 7.220009 14.439983
Cu 9.024985 5.414998 14.439983
Cu 9.024985 7.220009 12.635007
Cu 10.829996 5.414998 12.635007
Cu 10.829996 7.220009 14.439983
Cu 12.635007 5.414998 14.439983
Cu 12.635007 7.220009 12.635007
Cu 14.439983 5.414998 12.635007
Cu 14.439983 7.220009 14.439983
Cu 16.244994 5.414998 14.439983
Cu 16.244994 7.220009 12.635007
Cu 18.050005 5.414998 12.635007
Cu 18.050005 7.220009 14.439983
Cu -18.050000 9.024985 12.635007
Cu -16.245001 9.024985 14.439983
Cu -16.245001 10.829996 12.635007
Cu -18.050000 10.829996 14.439983
Cu -14.439982 9.024985 12.635007
Cu -12.635007 9.024985 14.439983
Cu -12.635007 10.829996 12.635007
Cu -14.439982 10.829996 14.439983
Cu -10.829996 9.024985 12.635007
Cu -9.024984 9.024985 14.439983
Cu -9.024984 10.829996 12.635007
Cu -10.829996 10.829996 14.439983
Cu -7.220009 9.024985 12.635007
Cu -5.414998 9.024985 14.439983
Cu -5.414998 10.829996 12.635007
Cu -7.220009 10.829996 14.439983
Cu -3.609987 9.024985 12.635007
Cu -1.805011 9.024985 14.439983
Cu -1.805011 10.829996 12.635007
Cu -3.609987 10.829996 14.439983
Cu 0.000000 9.024985 12.635007
Cu 1.805011 9.024985 14.439983
Cu 1.805011 10.829996 12.635007
Cu 0.000000 10.829996 14.439983
Cu 3.609987 9.024985 12.635007
Cu 3.609987 10.829996 14.439983
Cu 5.414998 9.024985 14.439983
Cu 5.414998 10.829996 12.635007
Cu 7.220009 9.024985 12.635007
Cu 7.220009 10.829996 14.439983
Cu 9.024985 9.024985 14.439983
Cu 9.024985 10.829996 12.635007
Cu 10.829996 9.024985 12.635007
Cu 10.829996 10.829996 14.439983
Cu 12.635007 9.024985 14.439983
Cu 12.635007 10.829996 12.635007
Cu 14.439983 9.024985 12.635007
Cu 14.439983 10.829996 14.439983
Cu 16.244994 9.024985 14.439983
Cu 16.244994 10.829996 12.635007
Cu 18.050005 9.024985 12.635007
Cu 18.050005 10.829996 14.439983
Cu -18.050000 12.635007 12.635007
Cu -16.245001 12.635007 14.439983
Cu -16.245001 14.439983 12.635007
Cu -18.050000 14.439983 14.439983
Cu -14.439982 12.635007 12.635007
Cu -12.635007 12.635007 14.439983
Cu -12.635007 14.439983 12.635007
Cu -14.439982 14.439983 14.439983
Cu -10.829996 12.635007 12.635007
Cu -9.024984 12.635007 14.439983
Cu -9.024984 14.439983 12.635007
Cu -10.829996 14.439983 14.439983
Cu -7.220009 12.635007 12.635007
Cu -5.414998 12.635007 14.439983
Cu -5.414998 14.439983 12.635007
Cu -7.220009 14.439983 14.439983
Cu -3.609987 12.635007 12.635007
Cu -1.805011 12.635007 14.439983
Cu -1.805011 14.439983 12.635007
Cu -3.609987 14.439983 14.439983
Cu 0.000000 12.635007 12.635007
Cu 1.805011 12.635007 14.439983
Cu 1.805011 14.439983 12.635007
Cu 0.000000 14.439983 14.439983
Cu 3.609987 12.635007 12.635007
Cu 3.609987 14.439983 14.439983
Cu 5.414998 12.635007 14.439983
Cu 5.414998 14.439983 12.635007
Cu 7.220009 12.635007 12.635007
Cu 7.220009 14.439983 14.439983
Cu 9.024985 12.635007 14.439983
Cu 9.024985 14.439983 12.635007
Cu 10.829996 12.635007 12.635007
Cu 10.829996 14.439983 14.439983
Cu 12.635007 12.635007 14.439983
Cu 12.635007 14.439983 12.635007
Cu 14.439983 12.635007 12.635007
Cu 14.439983 14.439983 14.439983
Cu 16.244994 12.635007 14.439983
Cu 16.244994 14.439983 12.635007
Cu 18.050005 12.635007 12.635007
Cu 18.050005 14.439983 14.439983
Cu -18.050000 16.244994 12.635007
Cu -16.245001 16.244994 14.439983
Cu -16.245001 18.050005 12.635007
Cu -18.050000 18.050005 14.439983
Cu -14.439982 16.244994 12.635007
Cu -12.635007 16.244994 14.439983
Cu -12.635007 18.050005 12.635007
Cu -14.439982 18.050005 14.439983
Cu -10.829996 16.244994 12.635007
Cu -9.024984 16.244994 14.439983
Cu -9.024984 18.050005 12.635007
Cu -10.829996 18.050005 14.439983
Cu -7.220009 16.244994 12.635007
Cu -5.414998 16.244994 14.439983
Cu -5.414998 18.050005 12.635007
Cu -7.220009 18.050005 14.439983
Cu -3.609987 16.244994 12.635007
Cu -1.805011 16.244994 14.439983
Cu -1.805011 18.050005 12.635007
Cu -3.609987 18.050005 14.439983
Cu 0.000000 16.244994 12.635007
Cu 1.805011 16.244994 14.439983
Cu 1.805011 18.050005 12.635007
Cu 0.000000 18.050005 14.439983
Cu 3.609987 16.244994 12.635007
Cu 3.609987 18.050005 14.439983
Cu 5.414998 16.244994 14.439983
Cu 5.414998 18.050005 12.635007
Cu 7.220009 16.244994 12.635007
Cu 7.220009 18.050005 14.439983
Cu 9.024985 16.244994 14.439983
Cu 9.024985 18.050005 12.635007
Cu 10.829996 16.244994 12.635007
Cu 10.829996 18.050005 14.439983
Cu 12.635007 16.244994 14.439983
Cu 12.635007 18.050005 12.635007
Cu 14.439983 16.244994 12.635007
Cu 14.439983 18.050005 14.439983
Cu 16.244994 16.244994 14.439983
Cu 16.244994 18.050005 12.635007
Cu 18.050005 16.244994 12.635007
Cu 18.050005 18.050005 14.439983
Cu -18.050000 -16.245001 16.244994
Cu -16.245001 -18.050000 16.244994
Cu -18.050000 -18.050000 18.050005
Cu -16.245001 -16.245001 18.050005
Cu -14.439982 -16.245001 16.244994
Cu -12.635007 -18.050000 16.244994
Cu -14.439982 -18.050000 18.050005
Cu -12.635007 -16.245001 18.050005
Cu -10.829996 -16.245001 16.244994
Cu -9.024984 -18.050000 16.244994
Cu -10.829996 -18.050000 18.050005
Cu -9.024984 -16.245001 18.050005
Cu -7.220009 -16.245001 16.244994
Cu -5.414998 -18.050000 16.244994
Cu -7.220009 -18.050000 18.050005
Cu -5.414998 -16.245001 18.050005
Cu -3.609987 -16.245001 16.244994
Cu -1.805011 -18.050000 16.244994
Cu -3.609987 -18.050000 18.050005
Cu -1.805011 -16.245001 18.050005
Cu 0.000000 -16.245001 16.244994
Cu 1.805011 -18.050000 16.244994
Cu 0.000000 -18.050000 18.050005
Cu 1.805011 -16.245001 18.050005
Cu 3.609987 -16.245001 16.244994
Cu 3.609987 -18.050000 18.050005
Cu 5.414998 -18.050000 16.244994
Cu 5.414998 -16.245001 18.050005
Cu 7.220009 -16.245001 16.244994
Cu 7.220009 -18.050000 18.050005
Cu 9.024985 -18.050000 16.244994
Cu 9.024985 -16.245001 18.050005
Cu 10.829996 -16.245001 16.244994
Cu 10.829996 -18.050000 18.050005
Cu 12.635007 -18.050000 16.244994
Cu 12.635007 -16.245001 18.050005
Cu 14.439983 -16.245001 16.244994
Cu 14.439983 -18.050000 18.050005
Cu 16.244994 -18.050000 16.244994
Cu 16.244994 -16.245001 18.050005
Cu 18.050005 -16.245001 16.244994
Cu 18.050005 -18.050000 18.050005
Cu -18.050000 -12.635007 16.244994
Cu -16.245001 -14.439982 16.244994
Cu -18.050000 -14.439982 18.050005
Cu -16.245001 -12.635007 18.050005
Cu -14.439982 -12.635007 16.244994
Cu -12.635007 -14.439982 16.244994
Cu -14.439982 -14.439982 18.050005
Cu -12.635007 -12.635007 18.050005
Cu -10.829996 -12.635007 16.244994
Cu -9.024984 -14.439982 16.244994
Cu -10.829996 -14.439982 18.050005
Cu -9.024984 -12.635007 18.050005
Cu -7.220009 -12.635007 16.244994
Cu -5.414998 -14.439982 16.244994
Cu -7.220009 -14.439982 18.050005
Cu -5.414998 -12.635007 18.050005
Cu -3.609987 -12.635007 16.244994
Cu -1.805011 -14.439982 16.244994
Cu -3.609987 -14.439982 18.050005
Cu -1.805011 -12.635007 18.050005
Cu 0.000000 -12.635007 16.244994
Cu 1.805011 -14.439982 16.244994
Cu 0.000000 -14.439982 18.050005
Cu 1.805011 -12.635007 18.050005
Cu 3.609987 -12.635007 16.244994
Cu 3.609987 -14.439982 18.050005
Cu 5.414998 -14.439982 16.244994
Cu 5.414998 -12.635007 18.050005
Cu 7.220009 -12.635007 16.244994
Cu 7.220009 -14.439982 18.050005
Cu 9.024985 -14.439982 16.244994
Cu 9.024985 -12.635007 18.050005
Cu 10.829996 -12.635007 16.244994
Cu 10.829996 -14.439982 18.050005
Cu 12.635007 -14.439982 16.244994
Cu 12.635007 -12.635007 18.050005
Cu 14.439983 -12.635007 16.244994
Cu 14.439983 -14.439982 18.050005
Cu 16.244994 -14.439982 16.244994
Cu 16.244994 -12.635007 18.050005
Cu 18.050005 -12.635007 16.244994
Cu 18.050005 -14.439982 18.050005
Cu -18.050000 -9.024984 16.244994
Cu -16.245001 -10.829996 16.244994
Cu -18.050000 -10.829996 18.050005
Cu -16.245001 -9.024984 18.050005
Cu -14.439982 -9.024984 16.244994
Cu -12.635007 -10.829996 16.244994
Cu -14.439982 -10.829996 18.050005
Cu -12.635007 -9.024984 18.050005
Cu -10.829996 -9.024984 16.244994
Cu -9.024984 -10.829996 16.244994
Cu -10.829996 -10.829996 18.050005
Cu -9.024984 -9.024984 18.050005
Cu -7.220009 -9.024984 16.244994
Cu -5.414998 -10.829996 16.244994
Cu -7.220009 -10.829996 18.050005
Cu -5.414998 -9.024984 18.050005
Cu -3.609987 -9.024984 16.244994
Cu -1.805011 -10.829996 16.244994
Cu -3.609987 -10.829996 18.050005
Cu -1.805011 -9.024984 18.050005
Cu 0.000000 -9.024984 16.244994
Cu 1.805011 -10.829996 16.244994
Cu 0.000000 -10.829996 18.050005
Cu 1.805011 -9.024984 18.050005
Cu 3.609987 -9.024984 16.244994
Cu 3.609987 -10.829996 18.050005
Cu 5.414998 -10.829996 16.244994
Cu 5.414998 -9.024984 18.050005
Cu 7.220009 -9.024984 16.244994
Cu 7.220009 -10.829996 18.050005
Cu 9.024985 -10.829996 16.244994
Cu 9.024985 -9.024984 18.050005
Cu 10.829996 -9.024984 16.244994
Cu 10.829996 -10.829996 18.050005
Cu 12.635007 -10.829996 16.244994
Cu 12.635007 -9.024984 18.050005
Cu 14.439983 -9.024984 16.244994
Cu 14.439983 -10.829996 18.050005
Cu 16.244994 -10.829996 16.244994
Cu 16.244994 -9.024984 18.050005
Cu 18.050005 -9.024984 16.244994
Cu 18.050005 -10.829996 18.050005
Cu -18.050000 -5.414998 16.244994
Cu -16.245001 -7.220009 16.244994
Cu -18.050000 -7.220009 18.050005
Cu -16.245001 -5.414998 18.050005
Cu -14.439982 -5.414998 16.244994
Cu -12.635007 -7.220009 16.244994
Cu -14.439982 -7.220009 18.050005
Cu -12.635007 -5.414998 18.050005
Cu -10.829996 -5.414998 16.244994
Cu -9.024984 -7.220009 16.244994
Cu -10.829996 -7.220009 18.050005
Cu -9.024984 -5.414998 18.050005
Cu -7.220009 -5.414998 16.244994
Cu -5.414998 -7.220009 16.244994
Cu -7.220009 -7.220009 18.050005
Cu -5.414998 -5.414998 18.050005
Cu -3.609987 -5.414998 16.244994
Cu -1.805011 -7.220009 16.244994
Cu -3.609987 -7.220009 18.050005
Cu -1.805011 -5.414998 18.050005
Cu 0.000000 -5.414998 16.244994
Cu 1.805011 -7.220009 16.244994
Cu 0.000000 -7.220009 18.050005
Cu 1.805011 -5.414998 18.050005
Cu 3.609987 -5.414998 16.244994
Cu 3.609987 -7.220009 18.050005
Cu 5.414998 -7.220009 16.244994
Cu 5.414998 -5.414998 18.050005
Cu 7.220009 -5.414998 16.244994
Cu 7.220009 -7.220009 18.050005
Cu 9.024985 -7.220009 16.244994
Cu 9.024985 -5.414998 18.050005
Cu 10.829996 -5.414998 16.244994
Cu 10.829996 -7.220009 18.050005
Cu 12.635007 -7.220009 16.244994
Cu 12.635007 -5.414998 18.050005
Cu 14.439983 -5.414998 16.244994
Cu 14.439983 -7.220009 18.050005
Cu 16.244994 -7.220009 16.244994
Cu 16.244994 -5.414998 18.050005
Cu 18.050005 -5.414998 16.244994
Cu 18.050005 -7.220009 18.050005
Cu -18.050000 -1.805011 16.244994
Cu -16.245001 -3.609987 16.244994
Cu -18.050000 -3.609987 18.050005
Cu -16.245001 -1.805011 18.050005
Cu -14.439982 -1.805011 16.244994
Cu -12.635007 -3.609987 16.244994
Cu -14.439982 -3.609987 18.050005
Cu -12.635007 -1.805011 18.050005
Cu -10.829996 -1.805011 16.244994
Cu -9.024984 -3.609987 16.244994
Cu -10.829996 -3.609987 18.050005
Cu -9.024984 -1.805011 18.050005
Cu -7.220009 -1.805011 16.244994
Cu -5.414998 -3.609987 16.244994
Cu -7.220009 -3.609987 18.050005
Cu -5.414998 -1.805011 18.050005
Cu -3.609987 -1.805011 16.244994
Cu -1.805011 -3.609987 16.244994
Cu -3.609987 -3.609987 18.050005
Cu -1.805011 -1.805011 18.050005
Cu 0.000000 -1.805011 16.244994
Cu 1.805011 -3.609987 16.244994
Cu 0.000000 -3.609987 18.050005
Cu 1.805011 -1.805011 18.050005
Cu 3.609987 -1.805011 16.244994
Cu 3.609987 -3.609987 18.050005
Cu 5.414998 -3.609987 16.244994
Cu 5.414998 -1.805011 18.050005
Cu 7.220009 -1.805011 16.244994
Cu 7.220009 -3.609987 18.050005
Cu 9.024985 -3.609987 16.244994
Cu 9.024985 -1.805011 18.050005
Cu 10.829996 -1.805011 16.244994
Cu 10.829996 -3.609987 18.050005
Cu 12.635007 -3.609987 16.244994
Cu 12.635007 -1.805011 18.050005
Cu 14.439983 -1.805011 16.244994
Cu 14.439983 -3.609987 18.050005
Cu 16.244994 -3.609987 16.244994
Cu 16.244994 -1.805011 18.050005
Cu 18.050005 -1.805011 16.244994
Cu 18.050005 -3.609987 18.050005
Cu -18.050000 1.805011 16.244994
Cu -16.245001 0.000000 16.244994
Cu -18.050000 0.000000 18.050005
Cu -16.245001 1.805011 18.050005
Cu -16.245001 3.609987 16.244994
Cu -18.050000 3.609987 18.050005
Cu -14.439982 1.805011 16.244994
Cu -12.635007 0.000000 16.244994
Cu -14.439982 0.000000 18.050005
Cu -12.635007 1.805011 18.050005
Cu -12.635007 3.609987 16.244994
Cu -14.439982 3.609987 18.050005
Cu -10.829996 1.805011 16.244994
Cu -9.024984 0.000000 16.244994
Cu -10.829996 0.000000 18.050005
Cu -9.024984 1.805011 18.050005
Cu -9.024984 3.609987 16.244994
Cu -10.829996 3.609987 18.050005
Cu -7.220009 1.805011 16.244994
Cu -5.414998 0.000000 16.244994
Cu -7.220009 0.000000 18.050005
Cu -5.414998 1.805011 18.050005
Cu -5.414998 3.609987 16.244994
Cu -7.220009 3.609987 18.050005
Cu -3.609987 1.805011 16.244994
Cu -1.805011 0.000000 16.244994
Cu -3.609987 0.000000 18.050005
Cu -1.805011 1.805011 18.050005
Cu -1.805011 3.609987 16.244994
Cu -3.609987 3.609987 18.050005
Cu 0.000000 1.805011 16.244994
Cu 1.805011 0.000000 16.244994
Cu 0.000000 0.000000 18.050005
Cu 1.805011 1.805011 18.050005
Cu 1.805011 3.609987 16.244994
Cu 0.000000 3.609987 18.050005
Cu 3.609987 1.805011 16.244994
Cu 3.609987 0.000000 18.050005
Cu 3.609987 3.609987 18.050005
Cu 5.414998 0.000000 16.244994
Cu 5.414998 1.805011 18.050005
Cu 5.414998 3.609987 16.244994
Cu 7.220009 1.805011 16.244994
Cu 7.220009 0.000000 18.050005
Cu 7.220009 3.609987 18.050005
Cu 9.024985 0.000000 16.244994
Cu 9.024985 1.805011 18.050005
Cu 9.024985 3.609987 16.244994
Cu 10.829996 1.805011 16.244994
Cu 10.829996 0.000000 18.050005
Cu 10.829996 3.609987 18.050005
Cu 12.635007 0.000000 16.244994
Cu 12.635007 1.805011 18.050005
Cu 12.635007 3.609987 16.244994
Cu 14.439983 1.805011 16.244994
Cu 14.439983 0.000000 18.050005
Cu 14.439983 3.609987 18.050005
Cu 16.244994 0.000000 16.244994
Cu 16.244994 1.805011 18.050005
Cu 16.244994 3.609987 16.244994
Cu 18.050005 1.805011 16.244994
Cu 18.050005 0.000000 18.050005
Cu 18.050005 3.609987 18.050005
Cu -18.050000 5.414998 16.244994
Cu -16.245001 5.414998 18.050005
Cu -16.245001 7.220009 16.244994
Cu -18.050000 7.220009 18.050005
Cu -14.439982 5.414998 16.244994
Cu -12.635007 5.414998 18.050005
Cu -12.635007 7.220009 16.244994
Cu -14.439982 7.220009 18.050005
Cu -10.829996 5.414998 16.244994
Cu -9.024984 5.414998 18.050005
Cu -9.024984 7.220009 16.244994
Cu -10.829996 7.220009 18.050005
Cu -7.220009 5.414998 16.244994
Cu -5.414998 5.414998 18.050005
Cu -5.414998 7.220009 16.244994
Cu -7.220009 7.220009 18.050005
Cu -3.609987 5.414998 16.244994
Cu -1.805011 5.414998 18.050005
Cu -1.805011 7.220009 16.244994
Cu -3.609987 7.220009 18.050005
Cu 0.000000 5.414998 16.244994
Cu 1.805011 5.414998 18.050005
Cu 1.805011 7.220009 16.244994
Cu 0.000000 7.220009 18.050005
Cu 3.609987 5.414998 16.244994
Cu 3.609987 7.220009 18.050005
Cu 5.414998 5.414998 18.050005
Cu 5.414998 7.220009 16.244994
Cu 7.220009 5.414998 16.244994
Cu 7.220009 7.220009 18.050005
Cu 9.024985 5.414998 18.050005
Cu 9.024985 7.220009 16.244994
Cu 10.829996 5.414998 16.244994
Cu 10.829996 7.220009 18.050005
Cu 12.635007 5.414998 18.050005
Cu 12.635007 7.220009 16.244994
Cu 14.439983 5.414998 16.244994
Cu 14.439983 7.220009 18.050005
Cu 16.244994 5.414998 18.050005
Cu 16.244994 7.220009 16.244994
Cu 18.050005 5.414998 16.244994
Cu 18.050005 7.220009 18.050005
Cu -18.050000 9.024985 16.244994
Cu -16.245001 9.024985 18.050005
Cu -16.245001 10.829996 16.244994
Cu -18.050000 10.829996 18.050005
Cu -14.439982 9.024985 16.244994
Cu -12.635007 9.024985 18.050005
Cu -12.635007 10.829996 16.244994
Cu -14.439982 10.829996 18.050005
Cu -10.829996 9.024985 16.244994
Cu -9.024984 9.024985 18.050005
Cu -9.024984 10.829996 16.244994
Cu -10.829996 10.829996 18.050005
Cu -7.220009 9.024985 16.244994
Cu -5.414998 9.024985 18.050005
Cu -5.414998 10.829996 16.244994
Cu -7.220009 10.829996 18.050005
Cu -3.609987 9.024985 16.244994
Cu -1.805011 9.024985 18.050005
Cu -1.805011 10.829996 16.244994
Cu -3.609987 10.829996 18.050005
Cu 0.000000 9.024985 16.244994
Cu 1.805011 9.024985 18.050005
Cu 1.805011 10.829996 16.244994
Cu 0.000000 10.829996 18.050005
Cu 3.609987 9.024985 16.244994
Cu 3.609987 10.829996 18.050005
Cu 5.414998 9.024985 18.050005
Cu 5.414998 10.829996 16.244994
Cu 7.220009 9.024985 16.244994
Cu 7.220009 10.829996 18.050005
Cu 9.024985 9.024985 18.050005
Cu 9.024985 10.829996 16.244994
Cu 10.829996 9.024985 16.244994
Cu 10.829996 10.829996 18.050005
Cu 12.635007 9.024985 18.050005
Cu 12.635007 10.829996 16.244994
Cu 14.439983 9.024985 16.244994
Cu 14.439983 10.829996 18.050005
Cu 16.244994 9.024985 18.050005
Cu 16.244994 10.829996 16.244994
Cu 18.050005 9.024985 16.244994
Cu 18.050005 10.829996 18.050005
Cu -18.050000 12.635007 16.244994
Cu -16.245001 12.635007 18.050005
Cu -16.245001 14.439983 16.244994
Cu -18.050000 14.439983 18.050005
Cu -14.439982 12.635007 16.244994
Cu -12.635007 12.635007 18.050005
Cu -12.635007 14.439983 16.244994
Cu -14.439982 14.439983 18.050005
Cu -10.829996 12.635007 16.244994
Cu -9.024984 12.635007 18.050005
Cu -9.024984 14.439983 16.244994
Cu -10.829996 14.439983 18.050005
Cu -7.220009 12.635007 16.244994
Cu -5.414998 12.635007 18.050005
Cu -5.414998 14.439983 16.244994
Cu -7.220009 14.439983 18.050005
Cu -3.609987 12.635007 16.244994
Cu -1.805011 12.635007 18.050005
Cu -1.805011 14.439983 16.244994
Cu -3.609987 14.439983 18.050005
Cu 0.000000 12.635007 16.244994
Cu 1.805011 12.635007 18.050005
Cu 1.805011 14.439983 16.244994
Cu 0.000000 14.439983 18.050005
Cu 3.609987 12.635007 16.244994
Cu 3.609987 14.439983 18.050005
Cu 5.414998 12.635007 18.050005
Cu 5.414998 14.439983 16.244994
Cu 7.220009 12.635007 16.244994
Cu 7.220009 14.439983 18.050005
Cu 9.024985 12.635007 18.050005
Cu 9.024985 14.439983 16.244994
Cu 10.829996 12.635007 16.244994
Cu 10.829996 14.439983 18.050005
Cu 12.635007 12.635007 18.050005
Cu 12.635007 14.439983 16.244994
Cu 14.439983 12.635007 16.244994
Cu 14.439983 14.439983 18.050005
Cu 16.244994 12.635007 18.050005
Cu 16.244994 14.439983 16.244994
Cu 18.050005 12.635007 16.244994
Cu 18.050005 14.439983 18.050005
Cu -18.050000 16.244994 16.244994
Cu -16.245001 16.244994 18.050005
Cu -16.245001 18.050005 16.244994
Cu -18.050000 18.050005 18.050005
Cu -14.439982 16.244994 16.244994
Cu -12.635007 16.244994 18.050005
Cu -12.635007 18.050005 16.244994
Cu -14.439982 18.050005 18.050005
Cu -10.829996 16.244994 16.244994
Cu -9.024984 16.244994 18.050005
Cu -9.024984 18.050005 16.244994
Cu -10.829996 18.050005 18.050005
Cu -7.220009 16.244994 16.244994
Cu -5.414998 16.244994 18.050005
Cu -5.414998 18.050005 16.244994
Cu -7.220009 18.050005 18.050005
Cu -3.609987 16.244994 16.244994
Cu -1.805011 16.244994 18.050005
Cu -1.805011 18.050005 16.244994
Cu -3.609987 18.050005 18.050005
Cu 0.000000 16.244994 16.244994
Cu 1.805011 16.244994 18.050005
Cu 1.805011 18.050005 16.244994
Cu 0.000000 18.050005 18.050005
Cu 3.609987 16.244994 16.244994
Cu 3.609987 18.050005 18.050005
Cu 5.414998 16.244994 18.050005
Cu 5.414998 18.050005 16.244994
Cu 7.220009 16.244994 16.244994
Cu 7.220009 18.050005 18.050005
Cu 9.024985 16.244994 18.050005
Cu 9.024985 18.050005 16.244994
Cu 10.829996 16.244994 16.244994
Cu 10.829996 18.050005 18.050005
Cu 12.635007 16.244994 18.050005
Cu 12.635007 18.050005 16.244994
Cu 14.439983 16.244994 16.244994
Cu 14.439983 18.050005 18.050005
Cu 16.244994 16.244994 18.050005
Cu 16.244994 18.050005 16.244994
Cu 18.050005 16.244994 16.244994
Cu 18.050005 18.050005 18.050005
