586
Generated XYZ file with optional properties
Cu -3.840000 -11.520000 -0.000000
Cu -1.280000 -11.520000 -0.000000
Cu 1.280000 -11.520000 -0.000000
Cu 3.840000 -11.520000 -0.000000
Cu -6.400000 -8.960000 -0.000000
Cu -3.840000 -8.960000 -0.000000
Cu -1.280000 -8.960000 -0.000000
Cu 1.280000 -8.960000 -0.000000
Cu 3.840000 -8.960000 -0.000000
Cu 6.400000 -8.960000 -0.000000
Cu -8.960000 -6.400000 -0.000000
Cu -6.400000 -6.400000 -0.000000
Cu -3.840000 -6.400000 -0.000000
Cu -1.280000 -6.400000 -0.000000
Cu 1.280000 -6.400000 -0.000000
Cu 3.840000 -6.400000 -0.000000
Cu 6.400000 -6.400000 -0.000000
Cu 8.960000 -6.400000 -0.000000
Cu -11.520000 -3.840000 -0.000000
Cu -8.960000 -3.840000 -0.000000
Cu -6.400000 -3.840000 -0.000000
Cu -3.840000 -3.840000 -0.000000
Cu -1.280000 -3.840000 -0.000000
Cu 1.280000 -3.840000 -0.000000
Cu 3.840000 -3.840000 -0.000000
Cu 6.400000 -3.840000 -0.000000
Cu 8.960000 -3.840000 -0.000000
Cu 11.520000 -3.840000 -0.000000
Cu -11.520000 -1.280000 -0.000000
Cu -8.960000 -1.280000 -0.000000
Cu -6.400000 -1.280000 -0.000000
Cu -3.840000 -1.280000 -0.000000
Cu -1.280000 -1.280000 -0.000000
Cu 1.280000 -1.280000 -0.000000
Cu 3.840000 -1.280000 -0.000000
Cu 6.400000 -1.280000 -0.000000
Cu 8.960000 -1.280000 -0.000000
Cu 11.520000 -1.280000 -0.000000
Cu -11.520000 1.280000 -0.000000
Cu -8.960000 1.280000 -0.000000
Cu -6.400000 1.280000 -0.000000
Cu -3.840000 1.280000 -0.000000
Cu -1.280000 1.280000 -0.000000
Cu 1.280000 1.280000 -0.000000
Cu 3.840000 1.280000 -0.000000
Cu 6.400000 1.280000 -0.000000
Cu 8.960000 1.280000 -0.000000
Cu 11.520000 1.280000 -0.000000
Cu -11.520000 3.840000 -0.000000
Cu -8.960000 3.840000 -0.000000
Cu -6.400000 3.840000 -0.000000
Cu -3.840000 3.840000 -0.000000
Cu -1.280000 3.840000 -0.000000
Cu 1.280000 3.840000 -0.000000
Cu 3.840000 3.840000 -0.000000
Cu 6.400000 3.840000 -0.000000
Cu 8.960000 3.840000 -0.000000
Cu 11.520000 3.840000 -0.000000
Cu -8.960000 6.400000 -0.000000
Cu -6.400000 6.400000 -0.000000
Cu -3.840000 6.400000 -0.000000
Cu -1.280000 6.400000 -0.000000
Cu 1.280000 6.400000 -0.000000
Cu 3.840000 6.400000 -0.000000
Cu 6.400000 6.400000 -0.000000
Cu 8.960000 6.400000 -0.000000
Cu -6.400000 8.960000 -0.000000
Cu -3.840000 8.960000 -0.000000
Cu -1.280000 8.960000 -0.000000
Cu 1.280000 8.960000 -0.000000
Cu 3.840000 8.960000 -0.000000
Cu 6.400000 8.960000 -0.000000
Cu -3.840000 11.520000 -0.000000
Cu -1.280000 11.520000 -0.000000
Cu 1.280000 11.520000 -0.000000
Cu 3.840000 11.520000 -0.000000
Cu -5.120000 -10.240000 1.810190
Cu -2.560000 -10.240000 1.810190
Cu -0.000000 -10.240000 1.810190
Cu 2.560000 -10.240000 1.810190
Cu 5.120000 -10.240000 1.810190
Cu -7.680000 -7.680000 1.810190
Cu -5.120000 -7.680000 1.810190
Cu -2.560000 -7.680000 1.810190
Cu -0.000000 -7.680000 1.810190
Cu 2.560000 -7.680000 1.810190
Cu 5.120000 -7.680000 1.810190
Cu 7.680000 -7.680000 1.810190
Cu -10.240000 -5.120000 1.810190
Cu -7.680000 -5.120000 1.810190
Cu -5.120000 -5.120000 1.810190
Cu -2.560000 -5.120000 1.810190
Cu -0.000000 -5.120000 1.810190
Cu 2.560000 -5.120000 1.810190
Cu 5.120000 -5.120000 1.810190
Cu 7.680000 -5.120000 1.810190
Cu 10.240000 -5.120000 1.810190
Cu -10.240000 -2.560000 1.810190
Cu -7.680000 -2.560000 1.810190
Cu -5.120000 -2.560000 1.810190
Cu -2.560000 -2.560000 1.810190
Cu -0.000000 -2.560000 1.810190
Cu 2.560000 -2.560000 1.810190
Cu 5.120000 -2.560000 1.810190
Cu 7.680000 -2.560000 1.810190
Cu 10.240000 -2.560000 1.810190
Cu -10.240000 -0.000000 1.810190
Cu -7.680000 -0.000000 1.810190
Cu -5.120000 -0.000000 1.810190
Cu -2.560000 -0.000000 1.810190
Cu -0.000000 -0.000000 1.810190
Cu 2.560000 -0.000000 1.810190
Cu 5.120000 -0.000000 1.810190
Cu 7.680000 -0.000000 1.810190
Cu 10.240000 -0.000000 1.810190
Cu -10.240000 2.560000 1.810190
Cu -7.680000 2.560000 1.810190
Cu -5.120000 2.560000 1.810190
Cu -2.560000 2.560000 1.810190
Cu -0.000000 2.560000 1.810190
Cu 2.560000 2.560000 1.810190
Cu 5.120000 2.560000 1.810190
Cu 7.680000 2.560000 1.810190
Cu 10.240000 2.560000 1.810190
Cu -10.240000 5.120000 1.810190
Cu -7.680000 5.120000 1.810190
Cu -5.120000 5.120000 1.810190
Cu -2.560000 5.120000 1.810190
Cu -0.000000 5.120000 1.810190
Cu 2.560000 5.120000 1.810190
Cu 5.120000 5.120000 1.810190
Cu 7.680000 5.120000 1.810190
Cu 10.240000 5.120000 1.810190
Cu -7.680000 7.680000 1.810190
Cu -5.120000 7.680000 1.810190
Cu -2.560000 7.680000 1.810190
Cu -0.000000 7.680000 1.810190
Cu 2.560000 7.680000 1.810190
Cu 5.120000 7.680000 1.810190
Cu 7.680000 7.680000 1.810190
Cu -5.120000 10.240000 1.810190
Cu -2.560000 10.240000 1.810190
Cu -0.000000 10.240000 1.810190
Cu 2.560000 10.240000 1.810190
Cu 5.120000 10.240000 1.810190
Cu -6.400000 -8.960000 3.620390
Cu -3.840000 -8.960000 3.620390
Cu -1.280000 -8.960000 3.620390
Cu 1.280000 -8.960000 3.620390
Cu 3.840000 -8.960000 3.620390
Cu 6.400000 -8.960000 3.620390
Cu -8.960000 -6.400000 3.620390
Cu -6.400000 -6.400000 3.620390
Cu -3.840000 -6.400000 3.620390
Cu -1.280000 -6.400000 3.620390
Cu 1.280000 -6.400000 3.620390
Cu 3.840000 -6.400000 3.620390
Cu 6.400000 -6.400000 3.620390
Cu 8.960000 -6.400000 3.620390
Cu -8.960000 -3.840000 3.620390
Cu -6.400000 -3.840000 3.620390
Cu -3.840000 -3.840000 3.620390
Cu -1.280000 -3.840000 3.620390
Cu 1.280000 -3.840000 3.620390
Cu 3.840000 -3.840000 3.620390
Cu 6.400000 -3.840000 3.620390
Cu 8.960000 -3.840000 3.620390
Cu -8.960000 -1.280000 3.620390
Cu -6.400000 -1.280000 3.620390
Cu -3.840000 -1.280000 3.620390
Cu -1.280000 -1.280000 3.620390
Cu 1.280000 -1.280000 3.620390
Cu 3.840000 -1.280000 3.620390
Cu 6.400000 -1.280000 3.620390
Cu 8.960000 -1.280000 3.620390
Cu -8.960000 1.280000 3.620390
Cu -6.400000 1.280000 3.620390
Cu -3.840000 1.280000 3.620390
Cu -1.280000 1.280000 3.620390
Cu 1.280000 1.280000 3.620390
Cu 3.840000 1.280000 3.620390
Cu 6.400000 1.280000 3.620390
Cu 8.960000 1.280000 3.620390
Cu -8.960000 3.840000 3.620390
Cu -6.400000 3.840000 3.620390
Cu -3.840000 3.840000 3.620390
Cu -1.280000 3.840000 3.620390
Cu 1.280000 3.840000 3.620390
Cu 3.840000 3.840000 3.620390
Cu 6.400000 3.840000 3.620390
Cu 8.960000 3.840000 3.620390
Cu -8.960000 6.400000 3.620390
Cu -6.400000 6.400000 3.620390
Cu -3.840000 6.400000 3.620390
Cu -1.280000 6.400000 3.620390
Cu 1.280000 6.400000 3.620390
Cu 3.840000 6.400000 3.620390
Cu 6.400000 6.400000 3.620390
Cu 8.960000 6.400000 3.620390
Cu -6.400000 8.960000 3.620390
Cu -3.840000 8.960000 3.620390
Cu -1.280000 8.960000 3.620390
Cu 1.280000 8.960000 3.620390
Cu 3.840000 8.960000 3.620390
Cu 6.400000 8.960000 3.620390
Cu -7.680000 -7.680000 5.430580
Cu -5.120000 -7.680000 5.430580
Cu -2.560000 -7.680000 5.430580
Cu -0.000000 -7.680000 5.430580
Cu 2.560000 -7.680000 5.430580
Cu 5.120000 -7.680000 5.430580
Cu 7.680000 -7.680000 5.430580
Cu -7.680000 -5.120000 5.430580
Cu -5.120000 -5.120000 5.430580
Cu -2.560000 -5.120000 5.430580
Cu -0.000000 -5.120000 5.430580
Cu 2.560000 -5.120000 5.430580
Cu 5.120000 -5.120000 5.430580
Cu 7.680000 -5.120000 5.430580
Cu -7.680000 -2.560000 5.430580
Cu -5.120000 -2.560000 5.430580
Cu -2.560000 -2.560000 5.430580
Cu -0.000000 -2.560000 5.430580
Cu 2.560000 -2.560000 5.430580
Cu 5.120000 -2.560000 5.430580
Cu 7.680000 -2.560000 5.430580
Cu -7.680000 -0.000000 5.430580
Cu -5.120000 -0.000000 5.430580
Cu -2.560000 -0.000000 5.430580
Cu -0.000000 -0.000000 5.430580
Cu 2.560000 -0.000000 5.430580
Cu 5.120000 -0.000000 5.430580
Cu 7.680000 -0.000000 5.430580
Cu -7.680000 2.560000 5.430580
Cu -5.120000 2.560000 5.430580
Cu -2.560000 2.560000 5.430580
Cu -0.000000 2.560000 5.430580
Cu 2.560000 2.560000 5.430580
Cu 5.120000 2.560000 5.430580
Cu 7.680000 2.560000 5.430580
Cu -7.680000 5.120000 5.430580
Cu -5.120000 5.120000 5.430580
Cu -2.560000 5.120000 5.430580
Cu -0.000000 5.120000 5.430580
Cu 2.560000 5.120000 5.430580
Cu 5.120000 5.120000 5.430580
Cu 7.680000 5.120000 5.430580
Cu -7.680000 7.680000 5.430580
Cu -5.120000 7.680000 5.430580
Cu -2.560000 7.680000 5.430580
Cu -0.000000 7.680000 5.430580
Cu 2.560000 7.680000 5.430580
Cu 5.120000 7.680000 5.430580
Cu 7.680000 7.680000 5.430580
Cu -6.400000 -6.400000 7.240770
Cu -3.840000 -6.400000 7.240770
Cu -1.280000 -6.400000 7.240770
Cu 1.280000 -6.400000 7.240770
Cu 3.840000 -6.400000 7.240770
Cu 6.400000 -6.400000 7.240770
Cu -6.400000 -3.840000 7.240770
Cu -3.840000 -3.840000 7.240770
Cu -1.280000 -3.840000 7.240770
Cu 1.280000 -3.840000 7.240770
Cu 3.840000 -3.840000 7.240770
Cu 6.400000 -3.840000 7.240770
Cu -6.400000 -1.280000 7.240770
Cu -3.840000 -1.280000 7.240770
Cu -1.280000 -1.280000 7.240770
Cu 1.280000 -1.280000 7.240770
Cu 3.840000 -1.280000 7.240770
Cu 6.400000 -1.280000 7.240770
Cu -6.400000 1.280000 7.240770
Cu -3.840000 1.280000 7.240770
Cu -1.280000 1.280000 7.240770
Cu 1.280000 1.280000 7.240770
Cu 3.840000 1.280000 7.240770
Cu 6.400000 1.280000 7.240770
Cu -6.400000 3.840000 7.240770
Cu -3.840000 3.840000 7.240770
Cu -1.280000 3.840000 7.240770
Cu 1.280000 3.840000 7.240770
Cu 3.840000 3.840000 7.240770
Cu 6.400000 3.840000 7.240770
Cu -6.400000 6.400000 7.240770
Cu -3.840000 6.400000 7.240770
Cu -1.280000 6.400000 7.240770
Cu 1.280000 6.400000 7.240770
Cu 3.840000 6.400000 7.240770
Cu 6.400000 6.400000 7.240770
Cu -5.120000 -5.120000 9.050970
Cu -2.560000 -5.120000 9.050970
Cu -0.000000 -5.120000 9.050970
Cu 2.560000 -5.120000 9.050970
Cu 5.120000 -5.120000 9.050970
Cu -5.120000 -2.560000 9.050970
Cu -2.560000 -2.560000 9.050970
Cu -0.000000 -2.560000 9.050970
Cu 2.560000 -2.560000 9.050970
Cu 5.120000 -2.560000 9.050970
Cu -5.120000 -0.000000 9.050970
Cu -2.560000 -0.000000 9.050970
Cu -0.000000 -0.000000 9.050970
Cu 2.560000 -0.000000 9.050970
Cu 5.120000 -0.000000 9.050970
Cu -5.120000 2.560000 9.050970
Cu -2.560000 2.560000 9.050970
Cu -0.000000 2.560000 9.050970
Cu 2.560000 2.560000 9.050970
Cu 5.120000 2.560000 9.050970
Cu -5.120000 5.120000 9.050970
Cu -2.560000 5.120000 9.050970
Cu -0.000000 5.120000 9.050970
Cu 2.560000 5.120000 9.050970
Cu 5.120000 5.120000 9.050970
Cu -3.840000 -3.840000 10.861160
Cu -1.280000 -3.840000 10.861160
Cu 1.280000 -3.840000 10.861160
Cu 3.840000 -3.840000 10.861160
Cu -3.840000 -1.280000 10.861160
Cu -1.280000 -1.280000 10.861160
Cu 1.280000 -1.280000 10.861160
Cu 3.840000 -1.280000 10.861160
Cu -3.840000 1.280000 10.861160
Cu -1.280000 1.280000 10.861160
Cu 1.280000 1.280000 10.861160
Cu 3.840000 1.280000 10.861160
Cu -3.840000 3.840000 10.861160
Cu -1.280000 3.840000 10.861160
Cu 1.280000 3.840000 10.861160
Cu 3.840000 3.840000 10.861160
Cu -5.120000 -10.240000 -1.810190
Cu -2.560000 -10.240000 -1.810190
Cu -0.000000 -10.240000 -1.810190
Cu 2.560000 -10.240000 -1.810190
Cu 5.120000 -10.240000 -1.810190
Cu -7.680000 -7.680000 -1.810190
Cu -5.120000 -7.680000 -1.810190
Cu -2.560000 -7.680000 -1.810190
Cu -0.000000 -7.680000 -1.810190
Cu 2.560000 -7.680000 -1.810190
Cu 5.120000 -7.680000 -1.810190
Cu 7.680000 -7.680000 -1.810190
Cu -10.240000 -5.120000 -1.810190
Cu -7.680000 -5.120000 -1.810190
Cu -5.120000 -5.120000 -1.810190
Cu -2.560000 -5.120000 -1.810190
Cu -0.000000 -5.120000 -1.810190
Cu 2.560000 -5.120000 -1.810190
Cu 5.120000 -5.120000 -1.810190
Cu 7.680000 -5.120000 -1.810190
Cu 10.240000 -5.120000 -1.810190
Cu -10.240000 -2.560000 -1.810190
Cu -7.680000 -2.560000 -1.810190
Cu -5.120000 -2.560000 -1.810190
Cu -2.560000 -2.560000 -1.810190
Cu -0.000000 -2.560000 -1.810190
Cu 2.560000 -2.560000 -1.810190
Cu 5.120000 -2.560000 -1.810190
Cu 7.680000 -2.560000 -1.810190
Cu 10.240000 -2.560000 -1.810190
Cu -10.240000 -0.000000 -1.810190
Cu -7.680000 -0.000000 -1.810190
Cu -5.120000 -0.000000 -1.810190
Cu -2.560000 -0.000000 -1.810190
Cu -0.000000 -0.000000 -1.810190
Cu 2.560000 -0.000000 -1.810190
Cu 5.120000 -0.000000 -1.810190
Cu 7.680000 -0.000000 -1.810190
Cu 10.240000 -0.000000 -1.810190
Cu -10.240000 2.560000 -1.810190
Cu -7.680000 2.560000 -1.810190
Cu -5.120000 2.560000 -1.810190
Cu -2.560000 2.560000 -1.810190
Cu -0.000000 2.560000 -1.810190
Cu 2.560000 2.560000 -1.810190
Cu 5.120000 2.560000 -1.810190
Cu 7.680000 2.560000 -1.810190
Cu 10.240000 2.560000 -1.810190
Cu -10.240000 5.120000 -1.810190
Cu -7.680000 5.120000 -1.810190
Cu -5.120000 5.120000 -1.810190
Cu -2.560000 5.120000 -1.810190
Cu -0.000000 5.120000 -1.810190
Cu 2.560000 5.120000 -1.810190
Cu 5.120000 5.120000 -1.810190
Cu 7.680000 5.120000 -1.810190
Cu 10.240000 5.120000 -1.810190
Cu -7.680000 7.680000 -1.810190
Cu -5.120000 7.680000 -1.810190
Cu -2.560000 7.680000 -1.810190
Cu -0.000000 7.680000 -1.810190
Cu 2.560000 7.680000 -1.810190
Cu 5.120000 7.680000 -1.810190
Cu 7.680000 7.680000 -1.810190
Cu -5.120000 10.240000 -1.810190
Cu -2.560000 10.240000 -1.810190
Cu -0.000000 10.240000 -1.810190
Cu 2.560000 10.240000 -1.810190
Cu 5.120000 10.240000 -1.810190
Cu -6.400000 -8.960000 -3.620390
Cu -3.840000 -8.960000 -3.620390
Cu -1.280000 -8.960000 -3.620390
Cu 1.280000 -8.960000 -3.620390
Cu 3.840000 -8.960000 -3.620390
Cu 6.400000 -8.960000 -3.620390
Cu -8.960000 -6.400000 -3.620390
Cu -6.400000 -6.400000 -3.620390
Cu -3.840000 -6.400000 -3.620390
Cu -1.280000 -6.400000 -3.620390
Cu 1.280000 -6.400000 -3.620390
Cu 3.840000 -6.400000 -3.620390
Cu 6.400000 -6.400000 -3.620390
Cu 8.960000 -6.400000 -3.620390
Cu -8.960000 -3.840000 -3.620390
Cu -6.400000 -3.840000 -3.620390
Cu -3.840000 -3.840000 -3.620390
Cu -1.280000 -3.840000 -3.620390
Cu 1.280000 -3.840000 -3.620390
Cu 3.840000 -3.840000 -3.620390
Cu 6.400000 -3.840000 -3.620390
Cu 8.960000 -3.840000 -3.620390
Cu -8.960000 -1.280000 -3.620390
Cu -6.400000 -1.280000 -3.620390
Cu -3.840000 -1.280000 -3.620390
Cu -1.280000 -1.280000 -3.620390
Cu 1.280000 -1.280000 -3.620390
Cu 3.840000 -1.280000 -3.620390
Cu 6.400000 -1.280000 -3.620390
Cu 8.960000 -1.280000 -3.620390
Cu -8.960000 1.280000 -3.620390
Cu -6.400000 1.280000 -3.620390
Cu -3.840000 1.280000 -3.620390
Cu -1.280000 1.280000 -3.620390
Cu 1.280000 1.280000 -3.620390
Cu 3.840000 1.280000 -3.620390
Cu 6.400000 1.280000 -3.620390
Cu 8.960000 1.280000 -3.620390
Cu -8.960000 3.840000 -3.620390
Cu -6.400000 3.840000 -3.620390
Cu -3.840000 3.840000 -3.620390
Cu -1.280000 3.840000 -3.620390
Cu 1.280000 3.840000 -3.620390
Cu 3.840000 3.840000 -3.620390
Cu 6.400000 3.840000 -3.620390
Cu 8.960000 3.840000 -3.620390
Cu -8.960000 6.400000 -3.620390
Cu -6.400000 6.400000 -3.620390
Cu -3.840000 6.400000 -3.620390
Cu -1.280000 6.400000 -3.620390
Cu 1.280000 6.400000 -3.620390
Cu 3.840000 6.400000 -3.620390
Cu 6.400000 6.400000 -3.620390
Cu 8.960000 6.400000 -3.620390
Cu -6.400000 8.960000 -3.620390
Cu -3.840000 8.960000 -3.620390
Cu -1.280000 8.960000 -3.620390
Cu 1.280000 8.960000 -3.620390
Cu 3.840000 8.960000 -3.620390
Cu 6.400000 8.960000 -3.620390
Cu -7.680000 -7.680000 -5.430580
Cu -5.120000 -7.680000 -5.430580
Cu -2.560000 -7.680000 -5.430580
Cu -0.000000 -7.680000 -5.430580
Cu 2.560000 -7.680000 -5.430580
Cu 5.120000 -7.680000 -5.430580
Cu 7.680000 -7.680000 -5.430580
Cu -7.680000 -5.120000 -5.430580
Cu -5.120000 -5.120000 -5.430580
Cu -2.560000 -5.120000 -5.430580
Cu -0.000000 -5.120000 -5.430580
Cu 2.560000 -5.120000 -5.430580
Cu 5.120000 -5.120000 -5.430580
Cu 7.680000 -5.120000 -5.430580
Cu -7.680000 -2.560000 -5.430580
Cu -5.120000 -2.560000 -5.430580
Cu -2.560000 -2.560000 -5.430580
Cu -0.000000 -2.560000 -5.430580
Cu 2.560000 -2.560000 -5.430580
Cu 5.120000 -2.560000 -5.430580
Cu 7.680000 -2.560000 -5.430580
Cu -7.680000 -0.000000 -5.430580
Cu -5.120000 -0.000000 -5.430580
Cu -2.560000 -0.000000 -5.430580
Cu -0.000000 -0.000000 -5.430580
Cu 2.560000 -0.000000 -5.430580
Cu 5.120000 -0.000000 -5.430580
Cu 7.680000 -0.000000 -5.430580
Cu -7.680000 2.560000 -5.430580
Cu -5.120000 2.560000 -5.430580
Cu -2.560000 2.560000 -5.430580
Cu -0.000000 2.560000 -5.430580
Cu 2.560000 2.560000 -5.430580
Cu 5.120000 2.560000 -5.430580
Cu 7.680000 2.560000 -5.430580
Cu -7.680000 5.120000 -5.430580
Cu -5.120000 5.120000 -5.430580
Cu -2.560000 5.120000 -5.430580
Cu -0.000000 5.120000 -5.430580
Cu 2.560000 5.120000 -5.430580
Cu 5.120000 5.120000 -5.430580
Cu 7.680000 5.120000 -5.430580
Cu -7.680000 7.680000 -5.430580
Cu -5.120000 7.680000 -5.430580
Cu -2.560000 7.680000 -5.430580
Cu -0.000000 7.680000 -5.430580
Cu 2.560000 7.680000 -5.430580
Cu 5.120000 7.680000 -5.430580
Cu 7.680000 7.680000 -5.430580
Cu -6.400000 -6.400000 -7.240770
Cu -3.840000 -6.400000 -7.240770
Cu -1.280000 -6.400000 -7.240770
Cu 1.280000 -6.400000 -7.240770
Cu 3.840000 -6.400000 -7.240770
Cu 6.400000 -6.400000 -7.240770
Cu -6.400000 -3.840000 -7.240770
Cu -3.840000 -3.840000 -7.240770
Cu -1.280000 -3.840000 -7.240770
Cu 1.280000 -3.840000 -7.240770
Cu 3.840000 -3.840000 -7.240770
Cu 6.400000 -3.840000 -7.240770
Cu -6.400000 -1.280000 -7.240770
Cu -3.840000 -1.280000 -7.240770
Cu -1.280000 -1.280000 -7.240770
Cu 1.280000 -1.280000 -7.240770
Cu 3.840000 -1.280000 -7.240770
Cu 6.400000 -1.280000 -7.240770
Cu -6.400000 1.280000 -7.240770
Cu -3.840000 1.280000 -7.240770
Cu -1.280000 1.280000 -7.240770
Cu 1.280000 1.280000 -7.240770
Cu 3.840000 1.280000 -7.240770
Cu 6.400000 1.280000 -7.240770
Cu -6.400000 3.840000 -7.240770
Cu -3.840000 3.840000 -7.240770
Cu -1.280000 3.840000 -7.240770
Cu 1.280000 3.840000 -7.240770
Cu 3.840000 3.840000 -7.240770
Cu 6.400000 3.840000 -7.240770
Cu -6.400000 6.400000 -7.240770
Cu -3.840000 6.400000 -7.240770
Cu -1.280000 6.400000 -7.240770
Cu 1.280000 6.400000 -7.240770
Cu 3.840000 6.400000 -7.240770
Cu 6.400000 6.400000 -7.240770
Cu -5.120000 -5.120000 -9.050970
Cu -2.560000 -5.120000 -9.050970
Cu -0.000000 -5.120000 -9.050970
Cu 2.560000 -5.120000 -9.050970
Cu 5.120000 -5.120000 -9.050970
Cu -5.120000 -2.560000 -9.050970
Cu -2.560000 -2.560000 -9.050970
Cu -0.000000 -2.560000 -9.050970
Cu 2.560000 -2.560000 -9.050970
Cu 5.120000 -2.560000 -9.050970
Cu -5.120000 -0.000000 -9.050970
Cu -2.560000 -0.000000 -9.050970
Cu -0.000000 -0.000000 -9.050970
Cu 2.560000 -0.000000 -9.050970
Cu 5.120000 -0.000000 -9.050970
Cu -5.120000 2.560000 -9.050970
Cu -2.560000 2.560000 -9.050970
Cu -0.000000 2.560000 -9.050970
Cu 2.560000 2.560000 -9.050970
Cu 5.120000 2.560000 -9.050970
Cu -5.120000 5.120000 -9.050970
Cu -2.560000 5.120000 -9.050970
Cu -0.000000 5.120000 -9.050970
Cu 2.560000 5.120000 -9.050970
Cu 5.120000 5.120000 -9.050970
Cu -3.840000 -3.840000 -10.861160
Cu -1.280000 -3.840000 -10.861160
Cu 1.280000 -3.840000 -10.861160
Cu 3.840000 -3.840000 -10.861160
Cu -3.840000 -1.280000 -10.861160
Cu -1.280000 -1.280000 -10.861160
Cu 1.280000 -1.280000 -10.861160
Cu 3.840000 -1.280000 -10.861160
Cu -3.840000 1.280000 -10.861160
Cu -1.280000 1.280000 -10.861160
Cu 1.280000 1.280000 -10.861160
Cu 3.840000 1.280000 -10.861160
Cu -3.840000 3.840000 -10.861160
Cu -1.280000 3.840000 -10.861160
Cu 1.280000 3.840000 -10.861160
Cu 3.840000 3.840000 -10.861160
